LAMMPS (29 Aug 2024)
  using 1 OpenMP thread(s) per MPI task
# Initialization
units           metal
dimension       3
boundary        p p p
atom_style      atomic

# System Construction
lattice         fcc 4.05
Lattice spacing in x,y,z = 4.05 4.05 4.05
region          mybox block 0 5 0 5 0 5
create_box      1 mybox
Created orthogonal box = (0 0 0) to (20.25 20.25 20.25)
  1 by 1 by 1 MPI processor grid
create_atoms    1 box
Created 500 atoms
  using lattice units in orthogonal box = (0 0 0) to (20.25 20.25 20.25)
  create_atoms CPU = 0.000 seconds

# Potential
pair_style      eam/alloy
pair_coeff * * /scratch/gilbreth/holbrooe/LAMMPS-AST/publication/potentials/prompt1.potential Al

# NPT Ensemble
timestep        0.001
thermo          100
fix             1 all npt temp 300.0 300.0 0.1 iso 1.0 1.0 1.0

# Production Run
run 10
Neighbor list info ...
  update: every = 1 steps, delay = 0 steps, check = yes
  max neighbors/atom: 2000, page size: 100000
  master list distance cutoff = 7.5580544
  ghost atom cutoff = 7.5580544
  binsize = 3.7790272, bins = 6 6 6
  1 neighbor lists, perpetual/occasional/extra = 1 0 0
  (1) pair eam/alloy, perpetual
      attributes: half, newton on
      pair build: half/bin/atomonly/newton
      stencil: half/bin/3d
      bin: standard
Per MPI rank memory allocation (min/avg/max) = 3.394 | 3.394 | 3.394 Mbytes
   Step          Temp          E_pair         E_mol          TotEng         Press          Volume    
         0   0             -1679.6369      0             -1679.6369     -10497.041      8303.7656    
        10   4.7255991e-26 -1679.6701      0             -1679.6701     -10015.549      8298.575     
Loop time of 0.0031482 on 1 procs for 10 steps with 500 atoms

Performance: 274.442 ns/day, 0.087 hours/ns, 3176.417 timesteps/s, 1.588 Matom-step/s
96.4% CPU use with 1 MPI tasks x 1 OpenMP threads

MPI task timing breakdown:
Section |  min time  |  avg time  |  max time  |%varavg| %total
---------------------------------------------------------------
Pair    | 0.0029138  | 0.0029138  | 0.0029138  |   0.0 | 92.56
Neigh   | 0          | 0          | 0          |   0.0 |  0.00
Comm    | 5.5096e-05 | 5.5096e-05 | 5.5096e-05 |   0.0 |  1.75
Output  | 1.1211e-05 | 1.1211e-05 | 1.1211e-05 |   0.0 |  0.36
Modify  | 0.00014872 | 0.00014872 | 0.00014872 |   0.0 |  4.72
Other   |            | 1.935e-05  |            |       |  0.61

Nlocal:            500 ave         500 max         500 min
Histogram: 1 0 0 0 0 0 0 0 0 0
Nghost:           1956 ave        1956 max        1956 min
Histogram: 1 0 0 0 0 0 0 0 0 0
Neighs:          21500 ave       21500 max       21500 min
Histogram: 1 0 0 0 0 0 0 0 0 0

Total # of neighbors = 21500
Ave neighs/atom = 43
Neighbor list builds = 0
Dangerous builds = 0
Total wall time: 0:00:00
