LAMMPS (29 Aug 2024)
  using 1 OpenMP thread(s) per MPI task
# Initialization
units           metal
dimension       3
boundary        p p f
atom_style      atomic

# System Construction
lattice         bcc 3.300
Lattice spacing in x,y,z = 3.3 3.3 3.3
region          projectile block 0 20 0 20 0 20
region          target block 0 20 0 20 22.955 125.255
region          whole union 2 projectile target
create_box      1 whole
Created orthogonal box = (0 0 0) to (66 66 413.3415)
  1 by 1 by 1 MPI processor grid
create_atoms    1 region projectile
Created 16400 atoms
  using lattice units in orthogonal box = (0 0 0) to (66 66 413.3415)
  create_atoms CPU = 0.002 seconds
create_atoms    1 region target
Created 82000 atoms
  using lattice units in orthogonal box = (0 0 0) to (66 66 413.3415)
  create_atoms CPU = 0.009 seconds

# Potential
pair_style      eam
pair_coeff * * /scratch/gilbreth/holbrooe/LAMMPS-AST/publication/potentials/prompt3.potential Nb
ERROR: Incorrect args for pair coefficients (src/src/MANYBODY/pair_eam.cpp:387)
Last command: pair_coeff * * /scratch/gilbreth/holbrooe/LAMMPS-AST/publication/potentials/prompt3.potential Nb
