LAMMPS (29 Aug 2024)
  using 1 OpenMP thread(s) per MPI task
# Initialization
units metal
atom_style atomic
boundary p p f

# System Construction
lattice bcc 3.300
Lattice spacing in x,y,z = 3.3 3.3 3.3
region target block 0 20 0 20 0 40
region projectile block 0 20 0 20 41.5 61.5
region whole union 2 target projectile
create_box 1 whole
Created orthogonal box = (0 0 0) to (66 66 202.95)
  1 by 1 by 1 MPI processor grid
create_atoms 1 region target
Created 32400 atoms
  using lattice units in orthogonal box = (0 0 0) to (66 66 202.95)
  create_atoms CPU = 0.003 seconds
create_atoms 1 region projectile
Created 16000 atoms
  using lattice units in orthogonal box = (0 0 0) to (66 66 202.95)
  create_atoms CPU = 0.002 seconds

# Potential
pair_style eam
pair_coeff * * /scratch/gilbreth/holbrooe/LAMMPS-AST/publication/potentials/prompt3.potential Nb
ERROR: Incorrect args for pair coefficients (src/src/MANYBODY/pair_eam.cpp:387)
Last command: pair_coeff * * /scratch/gilbreth/holbrooe/LAMMPS-AST/publication/potentials/prompt3.potential Nb
