LAMMPS (29 Aug 2024)
  using 1 OpenMP thread(s) per MPI task
# Initialization
units           metal
dimension       3
boundary        p p f
atom_style      atomic

# System Construction
lattice         bcc 3.3
Lattice spacing in x,y,z = 3.3 3.3 3.3
region          projectile block 0 20 0 20 0 20
region          target block 0 20 0 20 21.5 61.5
create_box      2 projectile
Created orthogonal box = (0 0 0) to (66 66 66)
  1 by 1 by 1 MPI processor grid
create_atoms    1 region projectile
Created 16000 atoms
  using lattice units in orthogonal box = (0 0 0) to (66 66 66)
  create_atoms CPU = 0.002 seconds
create_atoms    2 region target
Created 0 atoms
  using lattice units in orthogonal box = (0 0 0) to (66 66 66)
  create_atoms CPU = 0.000 seconds

# Potential

pair_style zero 10.0
pair_coeff * *
mass 1 27

# Velocities and Equilibration
velocity        all create 300.0 12345
ERROR: Not all per-type masses are set. Type 2 is missing. (src/src/velocity.cpp:60)
Last command: velocity        all create 300.0 12345
