LAMMPS (29 Aug 2024)
  using 1 OpenMP thread(s) per MPI task
# Initialization
units           metal
dimension       3
boundary        p p f
atom_style      atomic

# System Construction
lattice bcc 3.300  # Nb lattice parameter approximation
Lattice spacing in x,y,z = 3.3 3.3 3.3
region projectile block 0 20 0 20 0 20 units lattice
region target block 0 20 0 20 20 60 units lattice
region gap block 0 20 0 20 19.5 20 units lattice

create_box 2 all
ERROR: Create_box region all does not exist (src/src/create_box.cpp:55)
Last command: create_box 2 all
