LAMMPS (29 Aug 2024)
  using 1 OpenMP thread(s) per MPI task
units metal
atom_style atomic
dimension 3
boundary p p s
newton on

lattice bcc 3.3
Lattice spacing in x,y,z = 3.3 3.3 3.3
region box block 0 20 0 20 0 64.545454545 units lattice
create_box 1 box
Created orthogonal box = (0 0 0) to (66 66 213)
  1 by 1 by 1 MPI processor grid
region target block 0 20 0 20 0 40 units lattice
create_atoms 1 region target
Created 32400 atoms
  using lattice units in orthogonal box = (0 0 -0.0213) to (66 66 213.0213)
  create_atoms CPU = 0.003 seconds
region projectile block 0 20 0 20 44.545454545 64.545454545 units lattice
create_atoms 1 region projectile
Created 16000 atoms
  using lattice units in orthogonal box = (0 0 -0.0213) to (66 66 213.0213)
  create_atoms CPU = 0.002 seconds
group target region target
32400 atoms in group target
group projectile region projectile
16000 atoms in group projectile

pair_style eam/alloy
pair_coeff * * /scratch/gilbreth/holbrooe/LAMMPS-AST/publication/potentials/prompt3.potential Nb

neighbor 2.0 bin
neigh_modify delay 0 every 1 check yes

timestep 0.001
thermo 1000
thermo_style custom step temp pe ke etotal press

velocity all create 300.0 4928459 mom yes rot yes dist gaussian
fix nvt all nvt temp 300.0 300.0 0.1
run 10
Neighbor list info ...
  update: every = 1 steps, delay = 0 steps, check = yes
  max neighbors/atom: 2000, page size: 100000
  master list distance cutoff = 6.75
  ghost atom cutoff = 6.75
  binsize = 3.375, bins = 20 20 64
  1 neighbor lists, perpetual/occasional/extra = 1 0 0
  (1) pair eam/alloy, perpetual
      attributes: half, newton on
      pair build: half/bin/atomonly/newton
      stencil: half/bin/3d
      bin: standard
Per MPI rank memory allocation (min/avg/max) = 21.5 | 21.5 | 21.5 Mbytes
   Step          Temp          PotEng         KinEng         TotEng         Press     
         0   300           -340504.05      1876.8185     -338627.23      7791.2377    
        10   281.28098     -340386.72      1759.7112     -338627.01      8619.1702    
Loop time of 0.213299 on 1 procs for 10 steps with 48400 atoms

Performance: 4.051 ns/day, 5.925 hours/ns, 46.883 timesteps/s, 2.269 Matom-step/s
99.4% CPU use with 1 MPI tasks x 1 OpenMP threads

MPI task timing breakdown:
Section |  min time  |  avg time  |  max time  |%varavg| %total
---------------------------------------------------------------
Pair    | 0.20463    | 0.20463    | 0.20463    |   0.0 | 95.93
Neigh   | 0          | 0          | 0          |   0.0 |  0.00
Comm    | 0.001257   | 0.001257   | 0.001257   |   0.0 |  0.59
Output  | 0.00020734 | 0.00020734 | 0.00020734 |   0.0 |  0.10
Modify  | 0.0060403  | 0.0060403  | 0.0060403  |   0.0 |  2.83
Other   |            | 0.001169   |            |       |  0.55

Nlocal:          48400 ave       48400 max       48400 min
Histogram: 1 0 0 0 0 0 0 0 0 0
Nghost:          24285 ave       24285 max       24285 min
Histogram: 1 0 0 0 0 0 0 0 0 0
Neighs:      1.512e+06 ave   1.512e+06 max   1.512e+06 min
Histogram: 1 0 0 0 0 0 0 0 0 0

Total # of neighbors = 1512000
Ave neighs/atom = 31.239669
Neighbor list builds = 0
Dangerous builds = 0
unfix nvt

velocity projectile set 0.0 0.0 -20.0 sum yes

fix nve all nve
run 10
Per MPI rank memory allocation (min/avg/max) = 21.5 | 21.5 | 21.5 Mbytes
   Step          Temp          PotEng         KinEng         TotEng         Press     
        10   53881.67      -340386.72      337087.05     -3299.6711      394696.21    
        20   53831.967     -340075.71      336776.11     -3299.6012      396794.36    
Loop time of 0.235734 on 1 procs for 10 steps with 48400 atoms

Performance: 3.665 ns/day, 6.548 hours/ns, 42.421 timesteps/s, 2.053 Matom-step/s
99.4% CPU use with 1 MPI tasks x 1 OpenMP threads

MPI task timing breakdown:
Section |  min time  |  avg time  |  max time  |%varavg| %total
---------------------------------------------------------------
Pair    | 0.23066    | 0.23066    | 0.23066    |   0.0 | 97.85
Neigh   | 0          | 0          | 0          |   0.0 |  0.00
Comm    | 0.001218   | 0.001218   | 0.001218   |   0.0 |  0.52
Output  | 0.00020811 | 0.00020811 | 0.00020811 |   0.0 |  0.09
Modify  | 0.0026716  | 0.0026716  | 0.0026716  |   0.0 |  1.13
Other   |            | 0.0009804  |            |       |  0.42

Nlocal:          48400 ave       48400 max       48400 min
Histogram: 1 0 0 0 0 0 0 0 0 0
Nghost:          24285 ave       24285 max       24285 min
Histogram: 1 0 0 0 0 0 0 0 0 0
Neighs:      1.512e+06 ave   1.512e+06 max   1.512e+06 min
Histogram: 1 0 0 0 0 0 0 0 0 0

Total # of neighbors = 1512000
Ave neighs/atom = 31.239669
Neighbor list builds = 0
Dangerous builds = 0
Total wall time: 0:00:00
