LAMMPS (29 Aug 2024)
  using 1 OpenMP thread(s) per MPI task
# Initialization
units           metal
dimension       3
boundary        p p p
atom_style      atomic

# System Construction
lattice         fcc 3.52 orient x 1 0 0 orient y 0 1 0 orient z 0 0 1
Lattice spacing in x,y,z = 3.52 3.52 3.52
region          box block 0 10 0 10 0 10
create_box      1 box
Created orthogonal box = (0 0 0) to (35.2 35.2 35.2)
  1 by 1 by 1 MPI processor grid
create_atoms    1 box
Created 4000 atoms
  using lattice units in orthogonal box = (0 0 0) to (35.2 35.2 35.2)
  create_atoms CPU = 0.001 seconds

# Potential

pair_style zero 10.0
pair_coeff * *
mass 1 27

# Velocity Initialization
velocity        all create 600 12345 mom yes rot yes dist gaussian

# Thermostat and Barostat
fix             1 all npt temp 300 2500 10 iso 1.0 1.0 1.0

# Production Run
timestep        0.001
run 10
Generated 0 of 0 mixed pair_coeff terms from geometric mixing rule
Neighbor list info ...
  update: every = 1 steps, delay = 0 steps, check = yes
  max neighbors/atom: 2000, page size: 100000
  master list distance cutoff = 12
  ghost atom cutoff = 12
  binsize = 6, bins = 6 6 6
  1 neighbor lists, perpetual/occasional/extra = 1 0 0
  (1) pair zero, perpetual
      attributes: half, newton on
      pair build: half/bin/atomonly/newton
      stencil: half/bin/3d
      bin: standard
Per MPI rank memory allocation (min/avg/max) = 10.96 | 10.96 | 10.96 Mbytes
   Step          Temp          E_pair         E_mol          TotEng         Press          Volume    
         0   600            0              0              310.14679      7595.5356      43614.208    
        10   599.88024      0              0              310.08489      7591.7425      43627.289    
Loop time of 0.00215916 on 1 procs for 10 steps with 4000 atoms

Performance: 400.157 ns/day, 0.060 hours/ns, 4631.441 timesteps/s, 18.526 Matom-step/s
94.0% CPU use with 1 MPI tasks x 1 OpenMP threads

MPI task timing breakdown:
Section |  min time  |  avg time  |  max time  |%varavg| %total
---------------------------------------------------------------
Pair    | 0.00046654 | 0.00046654 | 0.00046654 |   0.0 | 21.61
Neigh   | 0          | 0          | 0          |   0.0 |  0.00
Comm    | 0.00045109 | 0.00045109 | 0.00045109 |   0.0 | 20.89
Output  | 2.3985e-05 | 2.3985e-05 | 2.3985e-05 |   0.0 |  1.11
Modify  | 0.0010818  | 0.0010818  | 0.0010818  |   0.0 | 50.10
Other   |            | 0.0001357  |            |       |  6.29

Nlocal:           4000 ave        4000 max        4000 min
Histogram: 1 0 0 0 0 0 0 0 0 0
Nghost:          13969 ave       13969 max       13969 min
Histogram: 1 0 0 0 0 0 0 0 0 0
Neighs:      1.348e+06 ave   1.348e+06 max   1.348e+06 min
Histogram: 1 0 0 0 0 0 0 0 0 0

Total # of neighbors = 1348000
Ave neighs/atom = 337
Neighbor list builds = 0
Dangerous builds = 0
Total wall time: 0:00:00
