LAMMPS (29 Aug 2024)
  using 1 OpenMP thread(s) per MPI task
units metal
dimension 3
boundary p p p
atom_style atomic
variable lat equal 3.52
variable Tvel equal 600.0
variable Tstart equal 300.0
variable Tend equal 2500.0
variable heatrate equal 10.0
variable P equal 1.01325
variable dt equal 0.001
variable Tdamp equal 0.1
variable Pdamp equal 1.0
variable nsteps equal ceil((v_Tend-v_Tstart)/(v_heatrate*v_dt))
lattice fcc ${lat} origin 0.0 0.0 0.0 orient x 1 0 0 orient y 0 1 0 orient z 0 0 1
lattice fcc 3.52 origin 0.0 0.0 0.0 orient x 1 0 0 orient y 0 1 0 orient z 0 0 1
Lattice spacing in x,y,z = 3.52 3.52 3.52
region unitcell block 0 1 0 1 0 1 units lattice
create_box 1 unitcell
Created orthogonal box = (0 0 0) to (3.52 3.52 3.52)
  1 by 1 by 1 MPI processor grid
create_atoms 1 box
Created 4 atoms
  using lattice units in orthogonal box = (0 0 0) to (3.52 3.52 3.52)
  create_atoms CPU = 0.000 seconds
replicate 10 10 10
Replication is creating a 10x10x10 = 1000 times larger system...
  orthogonal box = (0 0 0) to (35.2 35.2 35.2)
  1 by 1 by 1 MPI processor grid
  4000 atoms
  replicate CPU = 0.001 seconds
mass 1 58.6934
pair_style eam/alloy
pair_coeff * * /scratch/gilbreth/holbrooe/LAMMPS-AST/publication/potentials/prompt2.potential Ni
neighbor 2.0 bin
neigh_modify every 1 delay 0 check yes
timestep ${dt}
timestep 0.001
reset_timestep 0
velocity all create ${Tvel} 12345 mom yes rot yes dist gaussian
velocity all create 600 12345 mom yes rot yes dist gaussian
thermo 1000
thermo_style custom step time temp press pe ke etotal enthalpy vol density lx ly lz
thermo_modify flush yes
fix npt_heating all npt temp ${Tstart} ${Tend} ${Tdamp} iso ${P} ${P} ${Pdamp}
fix npt_heating all npt temp 300 ${Tend} ${Tdamp} iso ${P} ${P} ${Pdamp}
fix npt_heating all npt temp 300 2500 ${Tdamp} iso ${P} ${P} ${Pdamp}
fix npt_heating all npt temp 300 2500 0.1 iso ${P} ${P} ${Pdamp}
fix npt_heating all npt temp 300 2500 0.1 iso 1.01325 ${P} ${Pdamp}
fix npt_heating all npt temp 300 2500 0.1 iso 1.01325 1.01325 ${Pdamp}
fix npt_heating all npt temp 300 2500 0.1 iso 1.01325 1.01325 1
run 10
Neighbor list info ...
  update: every = 1 steps, delay = 0 steps, check = yes
  max neighbors/atom: 2000, page size: 100000
  master list distance cutoff = 7.80375
  ghost atom cutoff = 7.80375
  binsize = 3.901875, bins = 10 10 10
  1 neighbor lists, perpetual/occasional/extra = 1 0 0
  (1) pair eam/alloy, perpetual
      attributes: half, newton on
      pair build: half/bin/atomonly/newton
      stencil: half/bin/3d
      bin: standard
Per MPI rank memory allocation (min/avg/max) = 4.843 | 4.843 | 4.843 Mbytes
   Step          Time           Temp          Press          PotEng         KinEng         TotEng        Enthalpy        Volume        Density           Lx             Ly             Lz      
         0   0              600            7594.6671     -17800          310.14679     -17489.853     -17283.112      43614.208      8.9411451      35.2           35.2           35.2         
        10   0.01           504.64364      14726.087     -17749.8        260.85601     -17488.944     -17087.932      43629.513      8.9380085      35.204117      35.204117      35.204117    
Loop time of 0.0584266 on 1 procs for 10 steps with 4000 atoms

Performance: 14.788 ns/day, 1.623 hours/ns, 171.155 timesteps/s, 684.619 katom-step/s
99.1% CPU use with 1 MPI tasks x 1 OpenMP threads

MPI task timing breakdown:
Section |  min time  |  avg time  |  max time  |%varavg| %total
---------------------------------------------------------------
Pair    | 0.056948   | 0.056948   | 0.056948   |   0.0 | 97.47
Neigh   | 0          | 0          | 0          |   0.0 |  0.00
Comm    | 0.00025361 | 0.00025361 | 0.00025361 |   0.0 |  0.43
Output  | 5.8771e-05 | 5.8771e-05 | 5.8771e-05 |   0.0 |  0.10
Modify  | 0.0010651  | 0.0010651  | 0.0010651  |   0.0 |  1.82
Other   |            | 0.0001008  |            |       |  0.17

Nlocal:           4000 ave        4000 max        4000 min
Histogram: 1 0 0 0 0 0 0 0 0 0
Nghost:           8195 ave        8195 max        8195 min
Histogram: 1 0 0 0 0 0 0 0 0 0
Neighs:         352000 ave      352000 max      352000 min
Histogram: 1 0 0 0 0 0 0 0 0 0

Total # of neighbors = 352000
Ave neighs/atom = 88
Neighbor list builds = 0
Dangerous builds = 0
Total wall time: 0:00:00
