LAMMPS (29 Aug 2024)
  using 1 OpenMP thread(s) per MPI task
# LAMMPS input script for Ni melting

# Initialization
units metal
dimension 3
boundary p p p
atom_style atomic

# System Construction
lattice fcc 3.52   # lattice parameter in Angstroms as typical for bulk Ni
Lattice spacing in x,y,z = 3.52 3.52 3.52
region box block 0 10 0 10 0 10
create_box 1 box
Created orthogonal box = (0 0 0) to (35.2 35.2 35.2)
  1 by 1 by 1 MPI processor grid
create_atoms 1 box
Created 4000 atoms
  using lattice units in orthogonal box = (0 0 0) to (35.2 35.2 35.2)
  create_atoms CPU = 0.001 seconds

# Potential
pair_style eam
pair_coeff * * /scratch/gilbreth/holbrooe/LAMMPS-AST/publication/potentials/prompt2.potential Ni
ERROR: Incorrect args for pair coefficients (src/src/MANYBODY/pair_eam.cpp:387)
Last command: pair_coeff * * /scratch/gilbreth/holbrooe/LAMMPS-AST/publication/potentials/prompt2.potential Ni
