LAMMPS (29 Aug 2024)
  using 1 OpenMP thread(s) per MPI task
units metal
dimension 3
boundary p p p
atom_style atomic
lattice fcc 4.05
Lattice spacing in x,y,z = 4.05 4.05 4.05
region box block 0 5 0 5 0 5 units lattice
create_box 1 box
Created orthogonal box = (0 0 0) to (20.25 20.25 20.25)
  1 by 1 by 1 MPI processor grid
create_atoms 1 box
Created 500 atoms
  using lattice units in orthogonal box = (0 0 0) to (20.25 20.25 20.25)
  create_atoms CPU = 0.000 seconds
mass 1 26.9815385
pair_style eam/alloy
pair_coeff * * /home/holbrooe/LAMMPS-AST/publication/potentials/prompt1.potential Al
neighbor 2.0 bin
neigh_modify delay 0 every 1 check yes
velocity all create 300.0 12345 mom yes rot no dist gaussian
timestep 0.001
run_style verlet
reset_timestep 0
thermo 1000
thermo_style custom step time temp press pe ke etotal vol lx ly lz
fix 1 all npt temp 300.0 300.0 0.1 iso 1.01325 1.01325 1.0
run 10
Neighbor list info ...
  update: every = 1 steps, delay = 0 steps, check = yes
  max neighbors/atom: 2000, page size: 100000
  master list distance cutoff = 7.5580544
  ghost atom cutoff = 7.5580544
  binsize = 3.7790272, bins = 6 6 6
  1 neighbor lists, perpetual/occasional/extra = 1 0 0
  (1) pair eam/alloy, perpetual
      attributes: half, newton on
      pair build: half/bin/atomonly/newton
      stencil: half/bin/3d
      bin: standard
Per MPI rank memory allocation (min/avg/max) = 3.394 | 3.394 | 3.394 Mbytes
   Step          Time           Temp          Press          PotEng         KinEng         TotEng         Volume           Lx             Ly             Lz      
         0   0              300           -8008.0096     -1679.6369      19.350244     -1660.2867      8303.7656      20.25          20.25          20.25        
        10   0.01           256.98738     -6878.2465     -1676.8749      16.575894     -1660.299       8299.8738      20.246836      20.246836      20.246836    
Loop time of 0.00321428 on 1 procs for 10 steps with 500 atoms

Performance: 268.800 ns/day, 0.089 hours/ns, 3111.114 timesteps/s, 1.556 Matom-step/s
93.0% CPU use with 1 MPI tasks x 1 OpenMP threads

MPI task timing breakdown:
Section |  min time  |  avg time  |  max time  |%varavg| %total
---------------------------------------------------------------
Pair    | 0.0029806  | 0.0029806  | 0.0029806  |   0.0 | 92.73
Neigh   | 0          | 0          | 0          |   0.0 |  0.00
Comm    | 5.9202e-05 | 5.9202e-05 | 5.9202e-05 |   0.0 |  1.84
Output  | 8.385e-06  | 8.385e-06  | 8.385e-06  |   0.0 |  0.26
Modify  | 0.00014711 | 0.00014711 | 0.00014711 |   0.0 |  4.58
Other   |            | 1.899e-05  |            |       |  0.59

Nlocal:            500 ave         500 max         500 min
Histogram: 1 0 0 0 0 0 0 0 0 0
Nghost:           1956 ave        1956 max        1956 min
Histogram: 1 0 0 0 0 0 0 0 0 0
Neighs:          21500 ave       21500 max       21500 min
Histogram: 1 0 0 0 0 0 0 0 0 0

Total # of neighbors = 21500
Ave neighs/atom = 43
Neighbor list builds = 0
Dangerous builds = 0
Total wall time: 0:00:00
