LAMMPS (29 Aug 2024)
  using 1 OpenMP thread(s) per MPI task
units metal
dimension 3
boundary p p p
atom_style atomic
variable alat equal 3.52
variable tvelocity equal 600.0
variable tstart equal 300.0
variable tstop equal 2500.0
variable tdamp equal 0.1
variable ptarget equal 1.01325
variable pdamp equal 1.0
variable dt equal 0.001
lattice fcc ${alat} origin 0.0 0.0 0.0 orient x 1 0 0 orient y 0 1 0 orient z 0 0 1
lattice fcc 3.52 origin 0.0 0.0 0.0 orient x 1 0 0 orient y 0 1 0 orient z 0 0 1
Lattice spacing in x,y,z = 3.52 3.52 3.52
region unitcell block 0 1 0 1 0 1 units lattice
create_box 1 unitcell
Created orthogonal box = (0 0 0) to (3.52 3.52 3.52)
  1 by 1 by 1 MPI processor grid
create_atoms 1 box
Created 4 atoms
  using lattice units in orthogonal box = (0 0 0) to (3.52 3.52 3.52)
  create_atoms CPU = 0.000 seconds
replicate 10 10 10
Replication is creating a 10x10x10 = 1000 times larger system...
  orthogonal box = (0 0 0) to (35.2 35.2 35.2)
  1 by 1 by 1 MPI processor grid
  4000 atoms
  replicate CPU = 0.001 seconds
mass 1 58.6934
pair_style eam/alloy
pair_coeff * * /home/holbrooe/LAMMPS-AST/EvaluationPipelineExample/potentials/prompt2.potential Ni
neighbor 2.0 bin
neigh_modify delay 0 every 1 check yes
timestep ${dt}
timestep 0.001
velocity all create ${tvelocity} 4928459 mom yes rot no dist gaussian
velocity all create 600 4928459 mom yes rot no dist gaussian
thermo 1000
thermo_style custom step temp press pe ke etotal vol lx ly lz
thermo_modify flush yes norm no lost error
run_style verlet
reset_timestep 0
fix 1 all npt temp ${tstart} ${tstop} ${tdamp} iso ${ptarget} ${ptarget} ${pdamp}
fix 1 all npt temp 300 ${tstop} ${tdamp} iso ${ptarget} ${ptarget} ${pdamp}
fix 1 all npt temp 300 2500 ${tdamp} iso ${ptarget} ${ptarget} ${pdamp}
fix 1 all npt temp 300 2500 0.1 iso ${ptarget} ${ptarget} ${pdamp}
fix 1 all npt temp 300 2500 0.1 iso 1.01325 ${ptarget} ${pdamp}
fix 1 all npt temp 300 2500 0.1 iso 1.01325 1.01325 ${pdamp}
fix 1 all npt temp 300 2500 0.1 iso 1.01325 1.01325 1
run 10
Neighbor list info ...
  update: every = 1 steps, delay = 0 steps, check = yes
  max neighbors/atom: 2000, page size: 100000
  master list distance cutoff = 7.80375
  ghost atom cutoff = 7.80375
  binsize = 3.901875, bins = 10 10 10
  1 neighbor lists, perpetual/occasional/extra = 1 0 0
  (1) pair eam/alloy, perpetual
      attributes: half, newton on
      pair build: half/bin/atomonly/newton
      stencil: half/bin/3d
      bin: standard
Per MPI rank memory allocation (min/avg/max) = 4.843 | 4.843 | 4.843 Mbytes
   Step          Temp          Press          PotEng         KinEng         TotEng         Volume           Lx             Ly             Lz      
         0   600            7594.6671     -17800          310.14679     -17489.853      43614.208      35.2           35.2           35.2         
        10   505.93246      14571.376     -17750.464      261.52222     -17488.942      43629.466      35.204104      35.204104      35.204104    
Loop time of 0.0608808 on 1 procs for 10 steps with 4000 atoms

Performance: 14.192 ns/day, 1.691 hours/ns, 164.255 timesteps/s, 657.022 katom-step/s
99.3% CPU use with 1 MPI tasks x 1 OpenMP threads

MPI task timing breakdown:
Section |  min time  |  avg time  |  max time  |%varavg| %total
---------------------------------------------------------------
Pair    | 0.059308   | 0.059308   | 0.059308   |   0.0 | 97.42
Neigh   | 0          | 0          | 0          |   0.0 |  0.00
Comm    | 0.00027218 | 0.00027218 | 0.00027218 |   0.0 |  0.45
Output  | 3.738e-05  | 3.738e-05  | 3.738e-05  |   0.0 |  0.06
Modify  | 0.0010897  | 0.0010897  | 0.0010897  |   0.0 |  1.79
Other   |            | 0.0001737  |            |       |  0.29

Nlocal:           4000 ave        4000 max        4000 min
Histogram: 1 0 0 0 0 0 0 0 0 0
Nghost:           8195 ave        8195 max        8195 min
Histogram: 1 0 0 0 0 0 0 0 0 0
Neighs:         352000 ave      352000 max      352000 min
Histogram: 1 0 0 0 0 0 0 0 0 0

Total # of neighbors = 352000
Ave neighs/atom = 88
Neighbor list builds = 0
Dangerous builds = 0
Total wall time: 0:00:00
