LAMMPS (29 Aug 2024)
  using 1 OpenMP thread(s) per MPI task
units metal
dimension 3
boundary p p p
atom_style atomic
lattice fcc 4.05
Lattice spacing in x,y,z = 4.05 4.05 4.05
region unitcell block 0 1 0 1 0 1 units lattice
create_box 1 unitcell
Created orthogonal box = (0 0 0) to (4.05 4.05 4.05)
  1 by 1 by 1 MPI processor grid
create_atoms 1 box
Created 4 atoms
  using lattice units in orthogonal box = (0 0 0) to (4.05 4.05 4.05)
  create_atoms CPU = 0.000 seconds
replicate 5 5 5
Replication is creating a 5x5x5 = 125 times larger system...
  orthogonal box = (0 0 0) to (20.25 20.25 20.25)
  1 by 1 by 1 MPI processor grid
  500 atoms
  replicate CPU = 0.000 seconds
mass 1 26.9815385
pair_style eam/alloy
pair_coeff * * /scratch/gilbreth/holbrooe/LAMMPS-AST/publication/potentials/prompt1.potential Al
neighbor 2.0 bin
neigh_modify delay 0 every 1 check yes
timestep 0.001
velocity all create 300.0 4928459 mom yes rot yes dist gaussian
thermo 1000
thermo_style custom step time temp press pe ke etotal vol density
fix ensemble all npt temp 300.0 300.0 0.1 iso 1.01325 1.01325 1.0
run 10
Neighbor list info ...
  update: every = 1 steps, delay = 0 steps, check = yes
  max neighbors/atom: 2000, page size: 100000
  master list distance cutoff = 7.5580544
  ghost atom cutoff = 7.5580544
  binsize = 3.7790272, bins = 6 6 6
  1 neighbor lists, perpetual/occasional/extra = 1 0 0
  (1) pair eam/alloy, perpetual
      attributes: half, newton on
      pair build: half/bin/atomonly/newton
      stencil: half/bin/3d
      bin: standard
Per MPI rank memory allocation (min/avg/max) = 3.394 | 3.394 | 3.394 Mbytes
   Step          Time           Temp          Press          PotEng         KinEng         TotEng         Volume        Density    
         0   0              300           -8008.0096     -1679.6369      19.350244     -1660.2867      8303.7656      2.697852     
        10   0.01           257.3615      -6875.8562     -1676.8991      16.600026     -1660.299       8299.8735      2.6991171    
Loop time of 0.00314613 on 1 procs for 10 steps with 500 atoms

Performance: 274.623 ns/day, 0.087 hours/ns, 3178.503 timesteps/s, 1.589 Matom-step/s
96.3% CPU use with 1 MPI tasks x 1 OpenMP threads

MPI task timing breakdown:
Section |  min time  |  avg time  |  max time  |%varavg| %total
---------------------------------------------------------------
Pair    | 0.0029095  | 0.0029095  | 0.0029095  |   0.0 | 92.48
Neigh   | 0          | 0          | 0          |   0.0 |  0.00
Comm    | 6.3398e-05 | 6.3398e-05 | 6.3398e-05 |   0.0 |  2.02
Output  | 1.3776e-05 | 1.3776e-05 | 1.3776e-05 |   0.0 |  0.44
Modify  | 0.00013984 | 0.00013984 | 0.00013984 |   0.0 |  4.44
Other   |            | 1.965e-05  |            |       |  0.62

Nlocal:            500 ave         500 max         500 min
Histogram: 1 0 0 0 0 0 0 0 0 0
Nghost:           1956 ave        1956 max        1956 min
Histogram: 1 0 0 0 0 0 0 0 0 0
Neighs:          21500 ave       21500 max       21500 min
Histogram: 1 0 0 0 0 0 0 0 0 0

Total # of neighbors = 21500
Ave neighs/atom = 43
Neighbor list builds = 0
Dangerous builds = 0
Total wall time: 0:00:00
