# LAMMPS input script for NVE simulation of tungsten atoms

# Initialize simulation
units metal
dimension 3
boundary p p p
atom_style atomic

# Create a BCC lattice of tungsten atoms
lattice bcc 3.165
region box block 0 2 0 2 0 2
create_box 1 box
create_atoms 1 box

# Set mass of tungsten atoms
mass 1 183.84

# Define interatomic potential (assuming we are using the SNAP potential)
pair_style snap
pair_coeff * * path/to/your/snap/potential SNAP_1

# Set neighbor list parameters
neighbor 2.0 bin
neigh_modify delay 0 every 1 check yes

# Set initial velocity and temperature
velocity all create 3000.0 12345 mom yes dist gaussian

# Setup NVE ensemble
timestep 0.001
fix 1 all nve

# Thermostat for equilibration (use Langevin as an example)
fix 2 all langevin 3000.0 3000.0 0.1 48279

# Equilibrate for 2.5 ps
run 2500

# Remove thermostat for NVE run
unfix 2

# NVE run for 7.5 ps
thermo 7.5 # Output every 7.5 ps / 1000 timesteps
thermo_style custom step temp pe ke etotal
run 7500

# End of LAMMPS input script