# LAMMPS Input Script for NVE Simulation of Tungsten

# Initialize simulation
units metal
dimension 3
boundary p p p
atom_style atomic

# Create a BCC lattice of tungsten
lattice bcc 3.165
region box block 0 2 0 2 0 2
create_box 1 box
create_atoms 1 box

# Define interatomic potential
pair_style ml-iap
pair_coeff * * tungsten.amp  # Assuming you have a machine learning potential file named tungsten.amp

# Set mass for tungsten
mass 1 183.84

# Set initial velocities to equilibrate temperature to 3000 K
velocity all create 3000.0 4928459
fix 1 all nve

# Run configuration
timestep 0.001  # 1 fs
thermo 75  # Output every 75 timesteps to get approximately 1000 outputs over 7.5 ps
run 7500  # Total run time of 7.5 ps

# Output settings
dump 1 all custom 75 dump.w  id type x y z
dump_modify 1 sort id

# Ensure LAMMPS is stopped gracefully
unfix 1
write_restart restart.7500