# LAMMPS script for NVE simulation of tungsten

# Initialize simulation
units metal
dimension 3
boundary p p p
atom_style atomic

# Create a BCC lattice and populate with tungsten (W) atoms
lattice bcc 3.165 # lattice constant in Angstroms
region box block 0 2 0 2 0 2
create_box 1 box
create_atoms 1 box

# Define interatomic potential
# Assuming that 'potential_file' is the path to your potential file, replace it accordingly
pair_style mlip mlip # if ML-IAP is to be used
pair_coeff * * potential_file W

# Set mass of tungsten
mass 1 183.84

# Define settings for simulation
timestep 0.001  # ps
thermo 100      # Output thermodynamic data every 100 timesteps

# Equilibrate system using a velocity rescaling algorithm at 3000 K
velocity all create 3000 12345
fix 1 all nve

# Run simulation
run 7500 # 7.5 ps = 7500 timesteps

# Output last frame for verification
write_data output_data.txt

unfix 1