# LAMMPS input script for spall failure simulation on Nb single crystal

units           metal
dimension       3
boundary        p p f
atom_style      atomic

# Lattice and region definitions
lattice         bcc 3.3
region          box block 0 20 0 20 0 60 units lattice
create_box      1 box
region          projectile block 0 20 0 20 0 20 units lattice
region          target block 0 20 0 20 21 60 units lattice
create_atoms    1 region projectile
create_atoms    1 region target

# Potential settings
pair_style      eam
pair_coeff      * * Nb_eam_file.eam Nb

# Define groups
group           projectile region projectile
group           target region target

# Initial velocities for the system
velocity        all create 300.0 12345 mom yes rot no

# Apply an initial velocity of 2 km/s to the projectile along the z-direction
velocity        projectile set 0.0 0.0 2000.0 units box

# Neighbor and timestep settings
neighbor        2.0 bin
neigh_modify    delay 0 every 1 check yes

# Define the integration method for equilibration
fix             nvt all nvt temp 300.0 300.0 0.1

# Equilibrate the system for 100 ps
timestep        0.001
run             100000

# Remove the thermostat and run adiabatic MD
unfix           nvt
fix             nve all nve

# Run the simulation
run             200000
