# LAMMPS script for spall failure simulation on Nb single crystals

units           metal
dimension       3
boundary        p p s
atom_style      atomic

# Define the lattice for BCC Nb
lattice         bcc 3.300 # Nb lattice constant in Å
region          projectile block 0 20 0 20 0 20 units lattice
region          target block 0 20 0 20 20 60 units lattice

# Create target and projectile regions
create_box      2 target
create_atoms    1 region projectile
create_atoms    2 region target

# Set atomic masses (Nb)
mass            1 92.906
mass            2 92.906

# Pair style and potential (EAM potential for Nb)
pair_style      eam
pair_coeff      * * Nb_eam.alloy Nb Nb

# Define initial velocities
velocity        all create 300.0 12345 mom yes rot yes dist gaussian

# Equilibrate the system at 300 K for 100 ps (100,000 timesteps)
fix             nvt all nvt temp 300.0 300.0 0.1
timestep        0.001 # 1 fs timestep
run             100000

# Unfix NVT and set adiabatic conditions
unfix           nvt
fix             nve all nve

# Assign impact velocity (2 km/s) to all atoms in the projectile along [001]
velocity        projectile set 0.0 0.0 -2000.0 units box

# Run the simulation
run             500000

# Output settings
thermo          1000
thermo_style    custom step temp pe ke press vol
dump            1 all custom 1000 dump.spall id type x y z vx vy vz
