LAMMPS (29 Aug 2024)
  using 1 OpenMP thread(s) per MPI task
# Initialization
units           metal
atom_style      atomic
boundary        p p p

# System Construction
lattice         fcc 4.05
Lattice spacing in x,y,z = 4.05 4.05 4.05
region          box block 0 5 0 5 0 5
create_box      1 box
Created orthogonal box = (0 0 0) to (20.25 20.25 20.25)
  1 by 1 by 1 MPI processor grid
create_atoms    1 box
Created 500 atoms
  using lattice units in orthogonal box = (0 0 0) to (20.25 20.25 20.25)
  create_atoms CPU = 0.000 seconds

# Potential

pair_style zero 10.0
pair_coeff * *
mass 1 27

# Miscellaneous
neighbor        2.0 bin
neigh_modify    delay 10 every 1

# Production Run
timestep        0.001
velocity        all create 300.0 12345 mom yes rot yes dist gaussian
fix             1 all npt temp 300.0 300.0 0.1 iso 1.01325 1.01325 1.0
run 10
Generated 0 of 0 mixed pair_coeff terms from geometric mixing rule
Neighbor list info ...
  update: every = 1 steps, delay = 10 steps, check = yes
  max neighbors/atom: 2000, page size: 100000
  master list distance cutoff = 12
  ghost atom cutoff = 12
  binsize = 6, bins = 4 4 4
  1 neighbor lists, perpetual/occasional/extra = 1 0 0
  (1) pair zero, perpetual
      attributes: half, newton on
      pair build: half/bin/atomonly/newton
      stencil: half/bin/3d
      bin: standard
Per MPI rank memory allocation (min/avg/max) = 3.646 | 3.646 | 3.646 Mbytes
   Step          Temp          E_pair         E_mol          TotEng         Press          Volume    
         0   300            0              0              19.350244      2489.0319      8303.7656    
        10   299.97006      0              0              19.348313      2488.4111      8305.0083    
Loop time of 0.000411786 on 1 procs for 10 steps with 500 atoms

Performance: 2098.177 ns/day, 0.011 hours/ns, 24284.458 timesteps/s, 12.142 Matom-step/s
8.3% CPU use with 1 MPI tasks x 1 OpenMP threads

MPI task timing breakdown:
Section |  min time  |  avg time  |  max time  |%varavg| %total
---------------------------------------------------------------
Pair    | 0.00011893 | 0.00011893 | 0.00011893 |   0.0 | 28.88
Neigh   | 0          | 0          | 0          |   0.0 |  0.00
Comm    | 0.00011597 | 0.00011597 | 0.00011597 |   0.0 | 28.16
Output  | 1.1251e-05 | 1.1251e-05 | 1.1251e-05 |   0.0 |  2.73
Modify  | 0.0001447  | 0.0001447  | 0.0001447  |   0.0 | 35.14
Other   |            | 2.095e-05  |            |       |  5.09

Nlocal:            500 ave         500 max         500 min
Histogram: 1 0 0 0 0 0 0 0 0 0
Nghost:           4130 ave        4130 max        4130 min
Histogram: 1 0 0 0 0 0 0 0 0 0
Neighs:         107000 ave      107000 max      107000 min
Histogram: 1 0 0 0 0 0 0 0 0 0

Total # of neighbors = 107000
Ave neighs/atom = 214
Neighbor list builds = 0
Dangerous builds = 0
Total wall time: 0:00:00
