LAMMPS (29 Aug 2024)
  using 1 OpenMP thread(s) per MPI task
# LAMMPS input script for melting of bulk Ni sample

# Initialization
units           metal
dimension       3
boundary        p p p
atom_style      atomic

# System Construction
lattice         fcc 3.52
Lattice spacing in x,y,z = 3.52 3.52 3.52
region          box block 0 10 0 10 0 10
create_box      1 box
Created orthogonal box = (0 0 0) to (35.2 35.2 35.2)
  1 by 1 by 1 MPI processor grid
create_atoms    1 box
Created 4000 atoms
  using lattice units in orthogonal box = (0 0 0) to (35.2 35.2 35.2)
  create_atoms CPU = 0.001 seconds
replicate       10 10 10
Replication is creating a 10x10x10 = 1000 times larger system...
  orthogonal box = (0 0 0) to (352 352 352)
  1 by 1 by 1 MPI processor grid
  4000000 atoms
  replicate CPU = 0.141 seconds

# Potential

pair_style zero 10.0
pair_coeff * *
mass 1 27

# Initial velocities
velocity        all create 600.0 12345 mom yes dist gaussian

# Equilibration
fix             1 all npt temp 300.0 2500.0 100.0 iso 0.0 0.0 1000.0

# Production Run
timestep        0.001
run 10
Generated 0 of 0 mixed pair_coeff terms from geometric mixing rule
Neighbor list info ...
  update: every = 1 steps, delay = 0 steps, check = yes
  max neighbors/atom: 2000, page size: 100000
  master list distance cutoff = 12
  ghost atom cutoff = 12
  binsize = 6, bins = 59 59 59
  1 neighbor lists, perpetual/occasional/extra = 1 0 0
  (1) pair zero, perpetual
      attributes: half, newton on
      pair build: half/bin/atomonly/newton
      stencil: half/bin/3d
      bin: standard
Per MPI rank memory allocation (min/avg/max) = 6055 | 6055 | 6055 Mbytes
   Step          Temp          E_pair         E_mol          TotEng         Press          Volume    
         0   600            0              0              310224.27      7597.433       43614208     
        10   600            0              0              310224.27      7597.433       43614208     
Loop time of 1.57865 on 1 procs for 10 steps with 4000000 atoms

Performance: 0.547 ns/day, 43.851 hours/ns, 6.335 timesteps/s, 25.338 Matom-step/s
98.7% CPU use with 1 MPI tasks x 1 OpenMP threads

MPI task timing breakdown:
Section |  min time  |  avg time  |  max time  |%varavg| %total
---------------------------------------------------------------
Pair    | 0.13813    | 0.13813    | 0.13813    |   0.0 |  8.75
Neigh   | 0          | 0          | 0          |   0.0 |  0.00
Comm    | 0.065291   | 0.065291   | 0.065291   |   0.0 |  4.14
Output  | 0.014604   | 0.014604   | 0.014604   |   0.0 |  0.93
Modify  | 1.2341     | 1.2341     | 1.2341     |   0.0 | 78.17
Other   |            | 0.1265     |            |       |  8.02

Nlocal:          4e+06 ave       4e+06 max       4e+06 min
Histogram: 1 0 0 0 0 0 0 0 0 0
Nghost:         831799 ave      831799 max      831799 min
Histogram: 1 0 0 0 0 0 0 0 0 0
Neighs:      1.348e+09 ave   1.348e+09 max   1.348e+09 min
Histogram: 1 0 0 0 0 0 0 0 0 0

Total # of neighbors = 1.348e+09
Ave neighs/atom = 337
Neighbor list builds = 0
Dangerous builds = 0
Total wall time: 0:00:24
