# LAMMPS script to characterize Ni melting

units metal
atom_style atomic
boundary p p p

# Create the simulation box and atoms
lattice fcc 3.52
region box block 0 10 0 10 0 10
create_box 1 box
create_atoms 1 box

# Define the interatomic potential
pair_style eam
pair_coeff * * Mishin_Ni_1999.eam.alloy Ni

# Define thermodynamic and ensemble settings
velocity all create 600.0 12345 mom yes rot yes dist gaussian
fix 1 all npt temp 300.0 2500.0 10.0 iso 1.0 1.0 1.0

timestep 0.001  # 1 fs timestep
thermo 100
thermo_style custom step temp press pe ke etotal

# Run the simulation for a sufficient time to reach 2500 K
run 220000  # To achieve 220 ps heating at 10 K per ps

# Unfix the thermostat and allow free evolution
unfix 1
fix 2 all nve

run 100000  # Let system evolve at final temperature

write_data ni_melted.data
