# LAMMPS script for melting Ni using MD

units           metal
boundary        p p p
atom_style      atomic

# Create FCC Ni lattice and replicate
lattice         fcc 3.52
region         box block 0 10 0 10 0 10
create_box      1 box
create_atoms    1 box

# Set interatomic potential (EAM Mishin et al. 1999 from OpenKIM)
pair_style      eam/alloy
pair_coeff      * * Ni99.eam.alloy Ni

# Define simulation parameters
mass            1 58.69
neighbor        2.0 bin
neigh_modify    every 1 delay 0 check yes

# Initialize velocities from Maxwell-Boltzmann distribution at 600 K
velocity        all create 600.0 12345 mom yes rot yes dist gaussian

# Define NPT ensemble at 1 atm, heating from 300 K to 2500 K at 10 K/ps
fix             1 all npt temp 300.0 2500.0 100.0 iso 1.0 1.0 1000.0

timestep        0.001   # 1 fs timestep
run             220000  # 220 ps to reach 2500 K at 10 K/ps
