LAMMPS (29 Aug 2024)
  using 1 OpenMP thread(s) per MPI task
# Initialization
units           metal
dimension       3
boundary        p p p
atom_style      atomic

# System Construction
lattice         fcc 3.52
Lattice spacing in x,y,z = 3.52 3.52 3.52
region          box block 0 10 0 10 0 10
create_box      1 box
Created orthogonal box = (0 0 0) to (35.2 35.2 35.2)
  1 by 1 by 1 MPI processor grid
create_atoms    1 box
Created 4000 atoms
  using lattice units in orthogonal box = (0 0 0) to (35.2 35.2 35.2)
  create_atoms CPU = 0.001 seconds

# Potential
pair_style      eam/alloy
pair_coeff * * /scratch/gilbreth/holbrooe/LAMMPS-AST/publication/potentials/prompt2.potential Ni

# Initial Velocities
velocity        all create 600.0 12345 mom yes dist gaussian

# Thermodynamic settings
thermo          100

# Pressure and Temperature Control
fix             1 all npt temp 300.0 2500.0 $(10000.0) iso 1.0 1.0 $(10000.0)
fix             1 all npt temp 300.0 2500.0 10000 iso 1.0 1.0 $(10000.0)
fix             1 all npt temp 300.0 2500.0 10000 iso 1.0 1.0 10000

# Miscellaneous

# Production Run
timestep        0.001
run 10
Neighbor list info ...
  update: every = 1 steps, delay = 0 steps, check = yes
  max neighbors/atom: 2000, page size: 100000
  master list distance cutoff = 7.80375
  ghost atom cutoff = 7.80375
  binsize = 3.901875, bins = 10 10 10
  1 neighbor lists, perpetual/occasional/extra = 1 0 0
  (1) pair eam/alloy, perpetual
      attributes: half, newton on
      pair build: half/bin/atomonly/newton
      stencil: half/bin/3d
      bin: standard
Per MPI rank memory allocation (min/avg/max) = 4.843 | 4.843 | 4.843 Mbytes
   Step          Temp          E_pair         E_mol          TotEng         Press          Volume    
         0   600           -17800          0             -17489.853      7594.6671      43614.208    
        10   502.85316     -17749.785      0             -17489.855      15440.199      43614.208    
Loop time of 0.0650155 on 1 procs for 10 steps with 4000 atoms

Performance: 13.289 ns/day, 1.806 hours/ns, 153.809 timesteps/s, 615.238 katom-step/s
99.2% CPU use with 1 MPI tasks x 1 OpenMP threads

MPI task timing breakdown:
Section |  min time  |  avg time  |  max time  |%varavg| %total
---------------------------------------------------------------
Pair    | 0.063502   | 0.063502   | 0.063502   |   0.0 | 97.67
Neigh   | 0          | 0          | 0          |   0.0 |  0.00
Comm    | 0.00026291 | 0.00026291 | 0.00026291 |   0.0 |  0.40
Output  | 2.5829e-05 | 2.5829e-05 | 2.5829e-05 |   0.0 |  0.04
Modify  | 0.001106   | 0.001106   | 0.001106   |   0.0 |  1.70
Other   |            | 0.0001188  |            |       |  0.18

Nlocal:           4000 ave        4000 max        4000 min
Histogram: 1 0 0 0 0 0 0 0 0 0
Nghost:           8195 ave        8195 max        8195 min
Histogram: 1 0 0 0 0 0 0 0 0 0
Neighs:         352000 ave      352000 max      352000 min
Histogram: 1 0 0 0 0 0 0 0 0 0

Total # of neighbors = 352000
Ave neighs/atom = 88
Neighbor list builds = 0
Dangerous builds = 0
Total wall time: 0:00:00
