LAMMPS (29 Aug 2024)
  using 1 OpenMP thread(s) per MPI task
units metal
dimension 3
boundary p p s
atom_style atomic
variable a equal 3.300
variable gap equal 15.0
variable nx equal 20
variable ny equal 20
variable nzp equal 20
variable nzt equal 40
variable ztot equal v_nzp+v_nzt+v_gap/v_a
variable target_shift equal v_nzp*v_a+v_gap
variable dt equal 0.001
variable equil_steps equal 100000
variable prod_steps equal 100000
variable tdamp equal 0.1
variable impact_velocity equal 20.0
lattice bcc ${a} orient x 1 0 0 orient y 0 1 0 orient z 0 0 1
lattice bcc 3.3 orient x 1 0 0 orient y 0 1 0 orient z 0 0 1
Lattice spacing in x,y,z = 3.3 3.3 3.3
region box block 0 ${nx} 0 ${ny} 0 ${ztot} units lattice
region box block 0 20 0 ${ny} 0 ${ztot} units lattice
region box block 0 20 0 20 0 ${ztot} units lattice
region box block 0 20 0 20 0 64.5454545454545 units lattice
create_box 1 box
Created orthogonal box = (0 0 0) to (66 66 213)
  1 by 1 by 1 MPI processor grid
region target_initial block 0 ${nx} 0 ${ny} 0 ${nzt} units lattice
region target_initial block 0 20 0 ${ny} 0 ${nzt} units lattice
region target_initial block 0 20 0 20 0 ${nzt} units lattice
region target_initial block 0 20 0 20 0 40 units lattice
create_atoms 1 region target_initial
Created 32400 atoms
  using lattice units in orthogonal box = (0 0 -0.0213) to (66 66 213.0213)
  create_atoms CPU = 0.003 seconds
group target region target_initial
32400 atoms in group target
region projectile_region block 0 ${nx} 0 ${ny} 0 ${nzp} units lattice
region projectile_region block 0 20 0 ${ny} 0 ${nzp} units lattice
region projectile_region block 0 20 0 20 0 ${nzp} units lattice
region projectile_region block 0 20 0 20 0 20 units lattice
create_atoms 1 region projectile_region
Created 16400 atoms
  using lattice units in orthogonal box = (0 0 -0.0213) to (66 66 213.0213)
  create_atoms CPU = 0.002 seconds
group projectile region projectile_region
32800 atoms in group projectile
group mobile union target projectile
48800 atoms in group mobile
mass 1 92.90638
pair_style eam/fs
pair_coeff * * /scratch/gilbreth/holbrooe/LAMMPS-AST/publication/potentials/prompt3.potential Nb
neighbor 2.0 bin
neigh_modify delay 0 every 1 check yes
timestep ${dt}
timestep 0.001
velocity mobile create 300.0 4928459 mom yes rot no dist gaussian units box
thermo 1000
thermo_style custom step time temp pe ke etotal press
fix equil mobile nvt temp 300.0 300.0 ${tdamp}
fix equil mobile nvt temp 300.0 300.0 0.1
run 10
Neighbor list info ...
  update: every = 1 steps, delay = 0 steps, check = yes
  max neighbors/atom: 2000, page size: 100000
  master list distance cutoff = 6.75
  ghost atom cutoff = 6.75
  binsize = 3.375, bins = 20 20 64
  1 neighbor lists, perpetual/occasional/extra = 1 0 0
  (1) pair eam/fs, perpetual
      attributes: half, newton on
      pair build: half/bin/atomonly/newton
      stencil: half/bin/3d
      bin: standard
WARNING: A per-atom density exceeded rhomax of EAM potential table - a linear extrapolation to the energy was made (src/src/MANYBODY/pair_eam.cpp:334)
Per MPI rank memory allocation (min/avg/max) = 25.65 | 25.65 | 25.65 Mbytes
   Step          Time           Temp          PotEng         KinEng         TotEng         Press     
         0   0              300           -nan            1892.3297     -nan           -nan          
        10   0.01          -nan            0             -nan           -nan           -nan          
Loop time of 0.0746592 on 1 procs for 10 steps with 48800 atoms

Performance: 11.573 ns/day, 2.074 hours/ns, 133.942 timesteps/s, 6.536 Matom-step/s
99.2% CPU use with 1 MPI tasks x 1 OpenMP threads

MPI task timing breakdown:
Section |  min time  |  avg time  |  max time  |%varavg| %total
---------------------------------------------------------------
Pair    | 0.066537   | 0.066537   | 0.066537   |   0.0 | 89.12
Neigh   | 0          | 0          | 0          |   0.0 |  0.00
Comm    | 0.0012194  | 0.0012194  | 0.0012194  |   0.0 |  1.63
Output  | 0.00019656 | 0.00019656 | 0.00019656 |   0.0 |  0.26
Modify  | 0.0057689  | 0.0057689  | 0.0057689  |   0.0 |  7.73
Other   |            | 0.0009372  |            |       |  1.26

Nlocal:          48800 ave       48800 max       48800 min
Histogram: 1 0 0 0 0 0 0 0 0 0
Nghost:          24510 ave       24510 max       24510 min
Histogram: 1 0 0 0 0 0 0 0 0 0
Neighs:     2.5724e+06 ave  2.5724e+06 max  2.5724e+06 min
Histogram: 1 0 0 0 0 0 0 0 0 0

Total # of neighbors = 2572400
Ave neighs/atom = 52.713115
Neighbor list builds = 0
Dangerous builds = 0
