LAMMPS (29 Aug 2024)
  using 1 OpenMP thread(s) per MPI task
units metal
dimension 3
boundary p p p
atom_style atomic
timestep 0.001

lattice fcc 4.05
Lattice spacing in x,y,z = 4.05 4.05 4.05
region box block 0 5 0 5 0 5 units lattice
create_box 1 box
Created orthogonal box = (0 0 0) to (20.25 20.25 20.25)
  1 by 1 by 1 MPI processor grid
create_atoms 1 box
Created 500 atoms
  using lattice units in orthogonal box = (0 0 0) to (20.25 20.25 20.25)
  create_atoms CPU = 0.000 seconds
mass 1 26.9815
velocity all create 300 12345 mom yes dist gaussian

pair_style eam/alloy
pair_coeff * * /home/holbrooe/LAMMPS-AST/publication/potentials/prompt1.potential Al

thermo 1000
thermo_style custom step temp press pe ke etotal

fix npt all npt temp 300 300 0.1 iso 1.01325 1.01325 1.0
run 10
Neighbor list info ...
  update: every = 1 steps, delay = 0 steps, check = yes
  max neighbors/atom: 2000, page size: 100000
  master list distance cutoff = 7.5580544
  ghost atom cutoff = 7.5580544
  binsize = 3.7790272, bins = 6 6 6
  1 neighbor lists, perpetual/occasional/extra = 1 0 0
  (1) pair eam/alloy, perpetual
      attributes: half, newton on
      pair build: half/bin/atomonly/newton
      stencil: half/bin/3d
      bin: standard
Per MPI rank memory allocation (min/avg/max) = 3.394 | 3.394 | 3.394 Mbytes
   Step          Temp          Press          PotEng         KinEng         TotEng    
         0   300.00556     -8007.9634     -1679.6369      19.350602     -1660.2863    
        10   256.99209     -6878.1879     -1676.8748      16.576199     -1660.2986    
Loop time of 0.00340528 on 1 procs for 10 steps with 500 atoms

Performance: 253.723 ns/day, 0.095 hours/ns, 2936.614 timesteps/s, 1.468 Matom-step/s
99.1% CPU use with 1 MPI tasks x 1 OpenMP threads

MPI task timing breakdown:
Section |  min time  |  avg time  |  max time  |%varavg| %total
---------------------------------------------------------------
Pair    | 0.0031694  | 0.0031694  | 0.0031694  |   0.0 | 93.07
Neigh   | 0          | 0          | 0          |   0.0 |  0.00
Comm    | 5.6912e-05 | 5.6912e-05 | 5.6912e-05 |   0.0 |  1.67
Output  | 1.3205e-05 | 1.3205e-05 | 1.3205e-05 |   0.0 |  0.39
Modify  | 0.00014373 | 0.00014373 | 0.00014373 |   0.0 |  4.22
Other   |            | 2.201e-05  |            |       |  0.65

Nlocal:            500 ave         500 max         500 min
Histogram: 1 0 0 0 0 0 0 0 0 0
Nghost:           1956 ave        1956 max        1956 min
Histogram: 1 0 0 0 0 0 0 0 0 0
Neighs:          21500 ave       21500 max       21500 min
Histogram: 1 0 0 0 0 0 0 0 0 0

Total # of neighbors = 21500
Ave neighs/atom = 43
Neighbor list builds = 0
Dangerous builds = 0
unfix npt
Total wall time: 0:00:00
