LAMMPS (29 Aug 2024)
  using 1 OpenMP thread(s) per MPI task
# Initialization
units           metal
dimension       3
boundary        p p f
atom_style      atomic

# System Construction
lattice         bcc 3.300
Lattice spacing in x,y,z = 3.3 3.3 3.3
region          projectile block 0 20 0 20 0 20 units lattice
create_box      2 projectile
Created orthogonal box = (0 0 0) to (66 66 66)
  1 by 1 by 1 MPI processor grid
create_atoms    1 region projectile
Created 16000 atoms
  using lattice units in orthogonal box = (0 0 0) to (66 66 66)
  create_atoms CPU = 0.002 seconds

region          target block 0 20 0 20 22.5 102.5 units lattice
create_atoms    2 region target
Created 0 atoms
  using lattice units in orthogonal box = (0 0 0) to (66 66 66)
  create_atoms CPU = 0.000 seconds

mass            * 92.906

# Potential
pair_style      eam
pair_coeff * * /scratch/gilbreth/holbrooe/LAMMPS-AST/publication/potentials/prompt3.potential Nb
ERROR: Incorrect args for pair coefficients (src/src/MANYBODY/pair_eam.cpp:387)
Last command: pair_coeff * * /scratch/gilbreth/holbrooe/LAMMPS-AST/publication/potentials/prompt3.potential Nb
