LAMMPS (29 Aug 2024)
  using 1 OpenMP thread(s) per MPI task
units metal
dimension 3
boundary p p p
atom_style atomic
newton on
neighbor 2.0 bin
neigh_modify delay 10 every 1 check yes
timestep 0.001
thermo 100

lattice fcc 4.05
Lattice spacing in x,y,z = 4.05 4.05 4.05
region box block 0 1 0 1 0 1 units lattice
create_box 1 box
Created orthogonal box = (0 0 0) to (4.05 4.05 4.05)
  1 by 1 by 1 MPI processor grid
create_atoms 1 box
Created 4 atoms
  using lattice units in orthogonal box = (0 0 0) to (4.05 4.05 4.05)
  create_atoms CPU = 0.000 seconds
mass 1 26.9815385
replicate 5 5 5
Replication is creating a 5x5x5 = 125 times larger system...
  orthogonal box = (0 0 0) to (20.25 20.25 20.25)
  1 by 1 by 1 MPI processor grid
  500 atoms
  replicate CPU = 0.000 seconds

pair_style eam/alloy
pair_coeff * * /home/holbrooe/LAMMPS-AST/publication/potentials/prompt1.potential Al

velocity all create 300.0 12345 mom yes rot no dist gaussian
fix 1 all npt temp 300.0 300.0 0.1 iso 1.01325 1.01325 1.0
run 10
Neighbor list info ...
  update: every = 1 steps, delay = 10 steps, check = yes
  max neighbors/atom: 2000, page size: 100000
  master list distance cutoff = 7.5580544
  ghost atom cutoff = 7.5580544
  binsize = 3.7790272, bins = 6 6 6
  1 neighbor lists, perpetual/occasional/extra = 1 0 0
  (1) pair eam/alloy, perpetual
      attributes: half, newton on
      pair build: half/bin/atomonly/newton
      stencil: half/bin/3d
      bin: standard
Per MPI rank memory allocation (min/avg/max) = 3.394 | 3.394 | 3.394 Mbytes
   Step          Temp          E_pair         E_mol          TotEng         Press          Volume    
         0   300           -1679.6369      0             -1660.2867     -8008.0096      8303.7656    
        10   256.98738     -1676.8749      0             -1660.299      -6878.2465      8299.8738    
Loop time of 0.00323426 on 1 procs for 10 steps with 500 atoms

Performance: 267.140 ns/day, 0.090 hours/ns, 3091.900 timesteps/s, 1.546 Matom-step/s
99.2% CPU use with 1 MPI tasks x 1 OpenMP threads

MPI task timing breakdown:
Section |  min time  |  avg time  |  max time  |%varavg| %total
---------------------------------------------------------------
Pair    | 0.0030128  | 0.0030128  | 0.0030128  |   0.0 | 93.15
Neigh   | 0          | 0          | 0          |   0.0 |  0.00
Comm    | 5.8336e-05 | 5.8336e-05 | 5.8336e-05 |   0.0 |  1.80
Output  | 1.047e-05  | 1.047e-05  | 1.047e-05  |   0.0 |  0.32
Modify  | 0.0001407  | 0.0001407  | 0.0001407  |   0.0 |  4.35
Other   |            | 1.196e-05  |            |       |  0.37

Nlocal:            500 ave         500 max         500 min
Histogram: 1 0 0 0 0 0 0 0 0 0
Nghost:           1956 ave        1956 max        1956 min
Histogram: 1 0 0 0 0 0 0 0 0 0
Neighs:          21500 ave       21500 max       21500 min
Histogram: 1 0 0 0 0 0 0 0 0 0

Total # of neighbors = 21500
Ave neighs/atom = 43
Neighbor list builds = 0
Dangerous builds = 0
unfix 1
Total wall time: 0:00:00
