LAMMPS (29 Aug 2024)
  using 1 OpenMP thread(s) per MPI task
units metal
dimension 3
boundary p p p
atom_style atomic

lattice fcc 4.05
Lattice spacing in x,y,z = 4.05 4.05 4.05
region box block 0 1 0 1 0 1 units lattice
create_box 1 box
Created orthogonal box = (0 0 0) to (4.05 4.05 4.05)
  1 by 1 by 1 MPI processor grid
create_atoms 1 box
Created 4 atoms
  using lattice units in orthogonal box = (0 0 0) to (4.05 4.05 4.05)
  create_atoms CPU = 0.000 seconds
mass 1 26.9815385
replicate 5 5 5
Replication is creating a 5x5x5 = 125 times larger system...
  orthogonal box = (0 0 0) to (20.25 20.25 20.25)
  1 by 1 by 1 MPI processor grid
  500 atoms
  replicate CPU = 0.000 seconds

pair_style eam/alloy
pair_coeff * * /scratch/gilbreth/holbrooe/LAMMPS-AST/publication/potentials/prompt1.potential Al

velocity all create 300.0 12345 mom yes rot no dist gaussian
timestep 0.005
thermo 100

fix 1 all npt temp 300.0 300.0 0.1 iso 1.01325 1.01325 1.0
run 10
Neighbor list info ...
  update: every = 1 steps, delay = 0 steps, check = yes
  max neighbors/atom: 2000, page size: 100000
  master list distance cutoff = 7.5580544
  ghost atom cutoff = 7.5580544
  binsize = 3.7790272, bins = 6 6 6
  1 neighbor lists, perpetual/occasional/extra = 1 0 0
  (1) pair eam/alloy, perpetual
      attributes: half, newton on
      pair build: half/bin/atomonly/newton
      stencil: half/bin/3d
      bin: standard
Per MPI rank memory allocation (min/avg/max) = 3.394 | 3.394 | 3.394 Mbytes
   Step          Temp          E_pair         E_mol          TotEng         Press          Volume    
         0   300           -1679.6369      0             -1660.2867     -8008.0096      8303.7656    
        10   109.51715     -1666.8899      0             -1659.826       1170.6156      8247.5201    
Loop time of 0.0034472 on 1 procs for 10 steps with 500 atoms

Performance: 1253.190 ns/day, 0.019 hours/ns, 2900.903 timesteps/s, 1.450 Matom-step/s
98.9% CPU use with 1 MPI tasks x 1 OpenMP threads

MPI task timing breakdown:
Section |  min time  |  avg time  |  max time  |%varavg| %total
---------------------------------------------------------------
Pair    | 0.0032162  | 0.0032162  | 0.0032162  |   0.0 | 93.30
Neigh   | 0          | 0          | 0          |   0.0 |  0.00
Comm    | 5.8399e-05 | 5.8399e-05 | 5.8399e-05 |   0.0 |  1.69
Output  | 1.3305e-05 | 1.3305e-05 | 1.3305e-05 |   0.0 |  0.39
Modify  | 0.00014072 | 0.00014072 | 0.00014072 |   0.0 |  4.08
Other   |            | 1.856e-05  |            |       |  0.54

Nlocal:            500 ave         500 max         500 min
Histogram: 1 0 0 0 0 0 0 0 0 0
Nghost:           1956 ave        1956 max        1956 min
Histogram: 1 0 0 0 0 0 0 0 0 0
Neighs:          21500 ave       21500 max       21500 min
Histogram: 1 0 0 0 0 0 0 0 0 0

Total # of neighbors = 21500
Ave neighs/atom = 43
Neighbor list builds = 0
Dangerous builds = 0
unfix 1
Total wall time: 0:00:00
