# LAMMPS Input Script for NVE simulation of BCC W at 3000 K

# 1. Initialize LAMMPS
clear
units          metal
atom_style     atomic
boundary       p p p

# 2. Create simulation box & atoms
#    A 2x2x2 BCC cell has 2 atoms per unit cell, so 2*2*2 × 2 = 16 total atoms.
variable       alat equal 3.165   # Approx. lattice constant for W (Å)
lattice        bcc ${alat}
region         box block 0 2 0 2 0 2
create_box     1 box
create_atoms   1 box

# 3. Define masses, potentials, neighbors
mass           1 183.84   # Tungsten
# If using an ML-IAP potential, replace the pair_style and pair_coeff lines
# below with the appropriate style/commands.  For example:
#   pair_style      mlip mlip_settings.ini
#   pair_coeff      * * 
pair_style     eam/fs
pair_coeff     * * W_eam.fs W   # Example EAM potential file for W
neighbor       2.0 bin
neigh_modify   delay 5 every 1

# 4. Set up thermodynamics & time
timestep       0.001       # 1 fs
thermo         100         # Print thermo output every 100 steps
thermo_style   custom step temp pe ke etotal

# 5. Initialize velocities at 3000 K
velocity       all create 3000.0 12345 mom yes dist gaussian

# 6. Run NVE dynamics
fix            1 all nve

# Optional: dump atomic positions for post-processing
dump           1 all custom 100 dump.W.lammpstrj id type x y z vx vy vz
dump_modify    1 sort id

# 7. Run for 7.5 ps = 7500 timesteps
run            7500

# End of input script