# LAMMPS Input Script for 16-atom W BCC NVE Simulation at 3000 K
# November 2021 version of LAMMPS, compiled with ML-IAP, PYTHON, ML-SNAP

# 1. Initialization
units           metal
atom_style      atomic
boundary        p p p
dimension       3

# 2. Create simulation box and atoms
#    For 16 atoms, use a 2x2x2 supercell of the bcc conventional cell.
lattice         bcc 3.16
region          box block 0 2 0 2 0 2
create_box      1 box
create_atoms    1 box

# 3. Define mass (for tungsten)
mass            1 183.84

# 4. Choose potential (example: EAM for tungsten)
#    If using ML potentials, replace pair_style/pair_coeff appropriately.
pair_style      eam/alloy
pair_coeff      * * W.eam.alloy W

# 5. Neighbor settings
neighbor        2.0 bin
neigh_modify    delay 5

# 6. Initialize velocities at 3000 K
velocity        all create 3000.0 12345 mom yes rot yes dist gaussian

# 7. Integrate using NVE ensemble
fix             1 all nve

# 8. Output settings
thermo          100     # Print thermodynamic data every 100 steps
timestep        0.001   # 1 fs (in metal units)
dump            1 all custom 100 dump.lammpstrj id type x y z vx vy vz

# 9. Run for 7.5 ps total
#    7.5 ps / 0.001 ps per timestep = 7500 timesteps
run             7500

# 10. End of script