LAMMPS (29 Aug 2024)
  using 1 OpenMP thread(s) per MPI task
units metal
dimension 3
boundary p p p
atom_style atomic
timestep 0.001
lattice fcc 3.52
Lattice spacing in x,y,z = 3.52 3.52 3.52
region unitcell block 0 1 0 1 0 1 units lattice
create_box 1 unitcell
Created orthogonal box = (0 0 0) to (3.52 3.52 3.52)
  1 by 1 by 1 MPI processor grid
create_atoms 1 box
Created 4 atoms
  using lattice units in orthogonal box = (0 0 0) to (3.52 3.52 3.52)
  create_atoms CPU = 0.000 seconds
replicate 10 10 10
Replication is creating a 10x10x10 = 1000 times larger system...
  orthogonal box = (0 0 0) to (35.2 35.2 35.2)
  1 by 1 by 1 MPI processor grid
  4000 atoms
  replicate CPU = 0.001 seconds
mass 1 58.6934

pair_style zero 10.0
pair_coeff * *
mass 1 27
neighbor 2.0 bin
neigh_modify every 1 delay 0 check yes
velocity all create 600.0 12345 mom yes rot yes dist gaussian
thermo 1000
thermo_style custom step time temp press pe ke etotal enthalpy vol density
thermo_modify norm no flush yes
fix npt_heating all npt temp 300.0 2500.0 0.1 iso 1.01325 1.01325 1.0
run 10
Generated 0 of 0 mixed pair_coeff terms from geometric mixing rule
Neighbor list info ...
  update: every = 1 steps, delay = 0 steps, check = yes
  max neighbors/atom: 2000, page size: 100000
  master list distance cutoff = 12
  ghost atom cutoff = 12
  binsize = 6, bins = 6 6 6
  1 neighbor lists, perpetual/occasional/extra = 1 0 0
  (1) pair zero, perpetual
      attributes: half, newton on
      pair build: half/bin/atomonly/newton
      stencil: half/bin/3d
      bin: standard
Per MPI rank memory allocation (min/avg/max) = 10.96 | 10.96 | 10.96 Mbytes
   Step          Time           Temp          Press          PotEng         KinEng         TotEng        Enthalpy        Volume        Density    
         0   0              600            7595.5356      0              310.14679      310.14679      516.91132      43614.208      4.1119216    
        10   0.01           602.0088       7618.6796      0              311.18516      311.18516      518.64194      43627.294      4.1106883    
Loop time of 0.00246072 on 1 procs for 10 steps with 4000 atoms

Performance: 351.116 ns/day, 0.068 hours/ns, 4063.846 timesteps/s, 16.255 Matom-step/s
99.4% CPU use with 1 MPI tasks x 1 OpenMP threads

MPI task timing breakdown:
Section |  min time  |  avg time  |  max time  |%varavg| %total
---------------------------------------------------------------
Pair    | 0.000514   | 0.000514   | 0.000514   |   0.0 | 20.89
Neigh   | 0          | 0          | 0          |   0.0 |  0.00
Comm    | 0.00050666 | 0.00050666 | 0.00050666 |   0.0 | 20.59
Output  | 4.9454e-05 | 4.9454e-05 | 4.9454e-05 |   0.0 |  2.01
Modify  | 0.0012406  | 0.0012406  | 0.0012406  |   0.0 | 50.42
Other   |            | 0.00015    |            |       |  6.10

Nlocal:           4000 ave        4000 max        4000 min
Histogram: 1 0 0 0 0 0 0 0 0 0
Nghost:          13969 ave       13969 max       13969 min
Histogram: 1 0 0 0 0 0 0 0 0 0
Neighs:      1.348e+06 ave   1.348e+06 max   1.348e+06 min
Histogram: 1 0 0 0 0 0 0 0 0 0

Total # of neighbors = 1348000
Ave neighs/atom = 337
Neighbor list builds = 0
Dangerous builds = 0
Total wall time: 0:00:00
