# Initialize Simulation
dimension 2
units lj
atom_style atomic

# Create Simulation Box and Atoms
lattice sq 0.75
region box block 0 10 0 10 -0.01 0.01
create_box 1 box
create_atoms 1 random 100 12345 box

# Define Lennard-Jones Potential
pair_style lj/cut 3.0
pair_coeff * * 1.0 1.0 3.0

# Adjust potentials to match described form in your method
variable sigma equal 1.0
variable rc equal 3.0
variable eps equal 1.0
pair_modify shift yes compute no

# Time Integration Parameters
variable t0 equal sqrt(${sigma}^2*mass/(48*${eps}))
variable tint equal 0.0025*${t0}
timestep ${tint}

# Output Thermodynamics
variable rho equal density
thermo 1000
thermo_style custom step temp etotal press

# Configure Velocity and Temperature
velocity all create 1.0 12345 mom yes rot no dist gaussian

# Run for each condition
variable eratio equal 48.0/0.09  # calculate scale factor for potential energy setups

# Run for specified (rho, E) conditions
variable rho1 equal 0.75
variable e1 equal -1.1
region circleI region circle 5 5 5 side in units box
simulation_loop: for simtype in "A "B "C "D
if "$(simtype)=="A" then "set variable rho equal ${rho1} set variable e equal ${e1}"
# Add additional conditions and settings for the energies here following the example...
# …

reset_timestep 0
run 10000