# LAMMPS input script for 2D Lennard-Jones simulation

# Initialize simulation parameters
units lj
dimension 2
atom_style atomic

# Create simulation box
lattice sq2 {density} origin 0.0 0.0
region simbox block 0 {lattice_x} 0 {lattice_y} -0.1 0.1
create_box 1 simbox
create_atoms 1 random {num_particles} 12345 simbox

# Define LJ potential parameters
variable rc equal 3.0
pair_style lj/cut ${rc}
pair_coeff 1 1 1.0 1.0 ${rc}

# Set integration parameters
mass 1 1.0
timestep 0.0025
velocity all create 1.0 12345

# Thermostat setup
fix 1 all nvt temp 1.0 1.0 {tdamp}

# Output settings
thermo 100
thermo_style custom step temp pe ke etotal

# Initial energy minimization
minimize 1.0e-4 1.0e-6 100 1000

# Simulation run for thermalization
run 5000

# Create initial configurations by cutting a circular drop
variable drop_radius equal sqrt(${num_particles}/(${PI}*${desired_density}))
region drop circle ${lattice_x_2} ${lattice_y_2} ${drop_radius} side in

# Set boundary conditions for visualization
region boundary block -0.1 1.1 -0.1 1.1 -0.1 0.1 units box

group drop region drop
delete_atoms group !drop

# Run the simulation
run 10000

# Post-process results (compute mean radial velocity, temperature, etc.)
# Add your analysis computations here as per your requirement

# Repeat for different configurations
# Optionally you can loop over the four cases if needed by modularizing the script