# LAMMPS Input Script for 16-atom W in BCC using NVE at 3000 K

# ---------- Initialization ----------
units          metal
atom_style     atomic
boundary       p p p

# ---------- Create Geometry ----------
# Set the tungsten lattice parameter (approx. 3.1652 Å)
variable       a equal 3.1652

# Use a bcc lattice and define a 2×2×2 supercell to get 16 atoms total
lattice        bcc ${a}
region         box block 0 2 0 2 0 2
create_box     1 box
create_atoms   1 box

# Assign mass for W (atomic weight ~183.84)
mass           1 183.84

# ---------- Define Potential ----------
# Example of using an ML-IAP/ML-SNAP potential file (placeholder)
# Replace "mlip.ini" or "mlsnap.mliap" with your model file if using ML potentials
pair_style     mlip mlip.ini
pair_coeff     * *

# If using a standard EAM potential instead, comment out above lines
# and uncomment lines below (adjust file name/path as needed):
#pair_style     eam
#pair_coeff     * * W_EAM_filename

# ---------- Equilibration at 3000 K ----------
# Initialize velocities at 3000 K
velocity       all create 3000.0 12345 mom yes rot yes dist gaussian

# Optionally, equilibrate in NVT for a short period
#fix            eq all nvt temp 3000.0 3000.0 0.1
#run            2000  # e.g. 2 ps of NVT
#unfix          eq

# ---------- NVE Production Run ----------
fix            1 all nve

# Time step of 1 fs (0.001 ps in metal units)
timestep       0.001

# We want a total of 7.5 ps → 7500 steps
thermo         50
thermo_style   custom step time temp etotal press

# Dump configuration every 7 steps → ~1071 snapshots (close to the ~1000 desired)
dump           myDump all custom 7 dump_w_nve.lammpstrj id type x y z vx vy vz
dump_modify    myDump sort id

run            7500

# ---------- End of Script ----------