LAMMPS (29 Aug 2024)
  using 1 OpenMP thread(s) per MPI task
print "Initialization"
Initialization
units metal
atom_style atomic
boundary p p p
timestep 0.001
neighbor 2.0 bin
neigh_modify delay 0 every 1 check yes

print "System Construction"
System Construction
lattice fcc 3.52
Lattice spacing in x,y,z = 3.52 3.52 3.52
region box block 0 1 0 1 0 1 units lattice
create_box 1 box
Created orthogonal box = (0 0 0) to (3.52 3.52 3.52)
  1 by 1 by 1 MPI processor grid
create_atoms 1 box
Created 4 atoms
  using lattice units in orthogonal box = (0 0 0) to (3.52 3.52 3.52)
  create_atoms CPU = 0.000 seconds
replicate 10 10 10
Replication is creating a 10x10x10 = 1000 times larger system...
  orthogonal box = (0 0 0) to (35.2 35.2 35.2)
  1 by 1 by 1 MPI processor grid
  4000 atoms
  replicate CPU = 0.001 seconds

print "Potential"
Potential
mass 1 58.6934
pair_style eam/alloy
pair_coeff * * /scratch/gilbreth/holbrooe/LAMMPS-AST/publication/potentials/prompt2.potential Ni

print "Miscellaneous"
Miscellaneous
velocity all create 600 87287 mom yes rot yes dist gaussian
reset_timestep 0
thermo 1000
thermo_style custom step temp press pe ke etotal

print "Production Run"
Production Run
fix 1 all npt temp 300 2500 1 iso 1.0 1.0 1
run 10
Neighbor list info ...
  update: every = 1 steps, delay = 0 steps, check = yes
  max neighbors/atom: 2000, page size: 100000
  master list distance cutoff = 7.80375
  ghost atom cutoff = 7.80375
  binsize = 3.901875, bins = 10 10 10
  1 neighbor lists, perpetual/occasional/extra = 1 0 0
  (1) pair eam/alloy, perpetual
      attributes: half, newton on
      pair build: half/bin/atomonly/newton
      stencil: half/bin/3d
      bin: standard
Per MPI rank memory allocation (min/avg/max) = 4.843 | 4.843 | 4.843 Mbytes
   Step          Temp          Press          PotEng         KinEng         TotEng    
         0   600            7594.6671     -17800          310.14679     -17489.853    
        10   505.39476      14446.272     -17751.197      261.24427     -17489.953    
Loop time of 0.0571714 on 1 procs for 10 steps with 4000 atoms

Performance: 15.112 ns/day, 1.588 hours/ns, 174.913 timesteps/s, 699.650 katom-step/s
98.7% CPU use with 1 MPI tasks x 1 OpenMP threads

MPI task timing breakdown:
Section |  min time  |  avg time  |  max time  |%varavg| %total
---------------------------------------------------------------
Pair    | 0.055759   | 0.055759   | 0.055759   |   0.0 | 97.53
Neigh   | 0          | 0          | 0          |   0.0 |  0.00
Comm    | 0.00025195 | 0.00025195 | 0.00025195 |   0.0 |  0.44
Output  | 2.2291e-05 | 2.2291e-05 | 2.2291e-05 |   0.0 |  0.04
Modify  | 0.0010339  | 0.0010339  | 0.0010339  |   0.0 |  1.81
Other   |            | 0.0001043  |            |       |  0.18

Nlocal:           4000 ave        4000 max        4000 min
Histogram: 1 0 0 0 0 0 0 0 0 0
Nghost:           8195 ave        8195 max        8195 min
Histogram: 1 0 0 0 0 0 0 0 0 0
Neighs:         352000 ave      352000 max      352000 min
Histogram: 1 0 0 0 0 0 0 0 0 0

Total # of neighbors = 352000
Ave neighs/atom = 88
Neighbor list builds = 0
Dangerous builds = 0
unfix 1
Total wall time: 0:00:00
