LAMMPS data file via write_data, version 29 Aug 2024, timestep = 10, units = metal

500 atoms
1 atom types

0.001582036923544519 20.248417963076456 xlo xhi
0.001582036923544519 20.248417963076456 ylo yhi
0.001582036923544519 20.248417963076456 zlo zhi

Masses

1 26.982

Atoms # atomic

1 1 0.01679249882502313 0.04567791697955611 20.217133142333267 0 0 -1
2 1 2.0106700089833653 2.0525853025186644 20.22821373529892 0 0 -1
3 1 2.020981556265205 20.246118008149924 2.003551836785581 0 -1 0
4 1 20.234195521984972 2.0160241568690025 2.038603556925091 -1 0 0
101 1 20.214631989648563 0.031644274061918776 4.065528295383939 -1 0 0
102 1 1.9906279436607064 2.006683567645827 4.012351715624292 0 0 0
21 1 20.21989251946621 4.071525616776739 20.22739844152174 -1 0 -1
23 1 2.001578149291686 4.009761916490311 2.0552384012662785 0 0 0
121 1 20.245384665238788 4.023191993071951 4.055865493887386 -1 0 0
5 1 4.047662138382088 0.007842783292341055 0.03163500836268894 0 0 0
8 1 4.043771420974244 2.0489897322382298 2.0774687872039754 0 0 0
105 1 4.020200293315249 0.02280097949850719 4.002194373760615 0 0 0
25 1 4.051262562496907 4.04165310885262 20.22790275566089 0 0 -1
125 1 4.020069549698618 4.055531859215888 4.053215648334486 0 0 0
6 1 6.033400804911561 1.9840171938854647 0.0035038220071333596 0 0 0
7 1 6.069236391912027 0.021312894731815434 2.0031208401630756 0 0 0
106 1 6.035754015363766 2.001527322759171 4.027460388513419 0 0 0
27 1 6.071207191401066 4.05429640485305 2.0479460950276103 0 0 0
9 1 8.082175286326676 20.232893088395958 0.05678340561636176 0 -1 0
12 1 8.074547213464086 2.0295361015158515 1.9941342216294085 0 0 0
109 1 8.100338283641225 0.0614716320357376 4.014392695511545 0 0 0
29 1 8.073856225015737 4.037265525221658 20.222718127871428 0 0 -1
129 1 8.10958942139099 4.047710366560741 4.035998049093234 0 0 0
10 1 10.134809850202494 2.025404613131 0.07700522032884613 0 0 0
11 1 10.167603830601502 20.198166182088848 2.0626175529296775 0 -1 0
110 1 10.151556333003308 2.0323237422630807 4.0740791833459955 0 0 0
31 1 10.125589286061706 4.037314695240414 2.0471433342117664 0 0 0
13 1 12.154109372056007 20.228579755823024 0.01686842203970989 0 -1 0
16 1 12.155009135995131 2.020170488066475 1.9923291548274829 0 0 0
113 1 12.148545770560307 0.037983222228926146 4.024871482772944 0 0 0
33 1 12.160035806424546 4.0732613013427965 20.241125807575816 0 0 -1
133 1 12.169385070343022 4.0347314947654285 4.063602184143504 0 0 0
14 1 14.146640813638793 2.0220043890986727 0.0144931660281875 0 0 0
15 1 14.15564309722578 0.06864535378577112 1.9994943883906653 0 0 0
114 1 14.223474145783355 2.0391647751296413 4.068969348693475 0 0 0
35 1 14.143391183458627 4.0196780621488015 2.040213247697058 0 0 0
17 1 16.17903774591294 20.22614639697427 20.226183771471362 0 -1 -1
20 1 16.164806298386665 2.082327220004162 2.028991428534413 0 0 0
117 1 16.195473997806623 20.2396474507079 4.04799506046978 0 -1 0
37 1 16.22054691103624 4.0569641127571305 20.24235619838924 0 0 -1
137 1 16.176647765667262 4.032604703130362 4.056291904401207 0 0 0
18 1 18.229251655597174 2.0440971473115366 0.050529016125178475 0 0 0
19 1 18.177793094391934 20.226360638482326 2.0777452209982448 0 -1 0
118 1 18.215010425307124 2.029738402125165 4.061702890426151 0 0 0
39 1 18.28130714259661 4.051518222258481 2.079993032914487 0 0 0
22 1 1.9759272667845615 6.081393153347246 0.045577048416013476 0 0 0
24 1 20.209159688589406 6.070750174771751 1.9938101228832288 -1 0 0
122 1 2.0211091613278165 6.113572442769724 4.041522912390178 0 0 0
41 1 0.03018507185328366 8.072932168566643 0.03200885689672957 0 0 0
43 1 2.0199881593336415 8.086605184241051 1.9985877545949537 0 0 0
141 1 0.004190683355055091 8.072832815899336 4.064450820659134 0 0 0
28 1 4.0779948431488755 6.0818963497821255 2.0414694713637536 0 0 0
45 1 4.043618220447088 8.124286555892139 20.23116689494094 0 0 -1
145 1 4.060514005427134 8.094115071417058 4.042431640485573 0 0 0
26 1 6.141383248673458 6.058601323917144 0.00804934377420478 0 0 0
126 1 6.077187756224333 6.130469846457104 4.037736809208391 0 0 0
47 1 6.0979655055505475 8.02269586355979 1.9804203685978299 0 0 0
32 1 8.129311165730089 6.114381295363413 1.9952420318613104 0 0 0
49 1 8.08367985382278 8.131527324437336 0.011763283681060822 0 0 0
149 1 8.154650543316304 8.128178639670157 4.043408288293601 0 0 0
30 1 10.07339871249474 6.102468561675621 20.228480731246076 0 0 -1
130 1 10.050257157349337 6.106667189345146 4.004890739972428 0 0 0
51 1 10.09594015477202 8.11341179855486 2.056573988763251 0 0 0
36 1 12.184904362073096 6.077683655949618 2.056715044239182 0 0 0
53 1 12.118858779168544 8.07536546021664 0.006837584206612077 0 0 0
153 1 12.185999490934849 8.119249380194974 4.103617995314451 0 0 0
34 1 14.18704124911627 6.073958661064986 0.032392254918099155 0 0 0
134 1 14.243561133247631 6.0774844093775355 3.9902755761356214 0 0 0
55 1 14.134595628728128 8.110690456343027 2.054705283402118 0 0 0
40 1 16.191069681275373 6.063245658421966 2.000618329662154 0 0 0
57 1 16.258592889915594 8.095532583820233 0.026900828879694395 0 0 0
157 1 16.233504013993148 8.053477057143416 4.0171122346157615 0 0 0
38 1 18.233646554043506 6.09803928261209 0.0347387048635188 0 0 0
138 1 18.238474848761438 6.08486258110308 4.056905126337241 0 0 0
59 1 18.262404465320746 8.1013597610973 1.9913448912869942 0 0 0
42 1 2.094060576003307 10.100923255412322 20.233450455777795 0 0 -1
44 1 0.03842263607267179 10.063396299026685 2.0343240213368823 0 0 0
142 1 2.0202175140126637 10.130737824571169 4.071308253147738 0 0 0
61 1 0.06313385403852734 12.162413993654036 20.227612732191425 0 0 -1
63 1 2.018521386751144 12.113828814867182 2.00814918549219 0 0 0
161 1 0.05101271658139579 12.168598927302773 4.053578360551828 0 0 0
48 1 4.065988973283587 10.1834495733698 2.0556021027989044 0 0 0
65 1 4.046348028458988 12.139230796539504 0.03372913535812233 0 0 0
165 1 4.066183423461071 12.15962559469126 4.071395634649655 0 0 0
46 1 6.067614715949532 10.13567781453798 0.02809994693221354 0 0 0
146 1 6.090074061634646 10.09747381394297 4.097479483269933 0 0 0
67 1 6.1006571302102115 12.131323283565212 2.050734068869929 0 0 0
52 1 8.104716284346742 10.176474788454568 2.0198481670065287 0 0 0
69 1 8.061962028568523 12.200148480920715 20.231182820126474 0 0 -1
169 1 8.136214578626246 12.095733386860521 4.068673174165756 0 0 0
50 1 10.138681226466195 10.119427808225 0.029894784546616638 0 0 0
150 1 10.114214108040596 10.147390554094908 4.09262110885851 0 0 0
71 1 10.11749853136783 12.200084082641226 2.016682133665823 0 0 0
56 1 12.123833428770151 10.129367113873485 2.0081589178006802 0 0 0
73 1 12.126349803663356 12.129060466812945 0.05877860141181057 0 0 0
173 1 12.189410027065524 12.134610385399556 4.033615981410985 0 0 0
54 1 14.197435112094382 10.183028541400013 0.007905998585380457 0 0 0
154 1 14.181058636205428 10.107530781131425 4.061251258964682 0 0 0
75 1 14.15103118427743 12.152213403040461 2.1005014464127845 0 0 0
60 1 16.172186632050803 10.121398948007492 2.0144410854626225 0 0 0
77 1 16.222854217330166 12.178911894848165 0.03972296157115988 0 0 0
177 1 16.183931822680346 12.117444125509143 4.0624878451524085 0 0 0
58 1 18.24378239879986 10.154741670509871 20.24816248787527 0 0 -1
158 1 18.25254796027308 10.144672570732705 4.015319098239516 0 0 0
79 1 18.24886650548178 12.118537903254257 1.9753834602622626 0 0 0
62 1 2.042333863513352 14.167384152365939 0.05633105702261803 0 0 0
64 1 0.011999556632099747 14.167194539402548 2.036241349229738 0 0 0
162 1 2.0433509662835454 14.227780838949375 4.082413081897118 0 0 0
81 1 20.231425292074146 16.245586234712473 20.243113627395044 -1 0 -1
83 1 2.043266734658462 16.206129800097063 2.0202895651197736 0 0 0
181 1 0.03526662094663526 16.22838343347138 4.038793699140557 0 0 0
68 1 3.9837503875019804 14.177457049059862 2.0416897497585316 0 0 0
85 1 4.012016370730843 16.136681839306007 0.010141796531231543 0 0 0
185 1 4.063922516064041 16.19089857427147 4.083008839261196 0 0 0
66 1 6.066094885492663 14.204000513763345 20.236885402952087 0 0 -1
166 1 6.070688807746254 14.166692610631834 3.9788488103149056 0 0 0
87 1 6.068282153807252 16.191099685271844 2.085324381292331 0 0 0
72 1 8.138638219900669 14.212295900088387 2.015125159321609 0 0 0
89 1 8.087457639550857 16.20454543843702 20.24161670279601 0 0 -1
189 1 8.10316301211827 16.22486608960332 4.02051590875379 0 0 0
70 1 10.132959667389903 14.134798948877492 20.183982881342143 0 0 -1
170 1 10.106333572113577 14.19168417000057 4.00624704482261 0 0 0
91 1 10.169026110318399 16.152726919501493 1.9948269593174957 0 0 0
76 1 12.126394215249853 14.180109546707618 2.017382997191102 0 0 0
93 1 12.153837551368218 16.21718685820979 0.006957538215885073 0 0 0
193 1 12.159612924458282 16.217145549386274 4.064799566768631 0 0 0
74 1 14.184105003146511 14.176233819975938 0.038098999614820245 0 0 0
174 1 14.169605449998873 14.158555974204134 4.01736419906693 0 0 0
95 1 14.147432408148484 16.225401164292563 2.03478752198762 0 0 0
80 1 16.176964756990714 14.222499430724879 2.0185441869910266 0 0 0
97 1 16.190290688753517 16.17886688454138 20.21156395548896 0 0 -1
197 1 16.184908595977827 16.198942072866462 4.0868262372974185 0 0 0
78 1 18.280268248794172 14.1644007727602 20.205996357609155 0 0 -1
178 1 18.216123537281327 14.151670289517252 4.07159000301829 0 0 0
99 1 18.22761615821469 16.15523630669472 2.047251353771988 0 0 0
82 1 1.9642859916527586 18.208181690132548 0.013544118567711613 0 0 0
84 1 20.234186434001998 18.24754927323201 2.0443630781513558 -1 0 0
182 1 2.039517735133093 18.209291055289217 4.05279416106438 0 0 0
88 1 4.06859164873597 18.19037175219238 1.9916007730129264 0 0 0
86 1 6.11789922467902 18.284006586415508 20.23563350867669 0 0 -1
186 1 6.059985430968629 18.20292441914888 4.037585374331741 0 0 0
92 1 8.044375121827684 18.204097188950207 2.023101452596957 0 0 0
90 1 10.090907877571636 18.266544354088463 0.046320117792043626 0 0 0
190 1 10.145917849144992 18.250606982498645 4.042133661911309 0 0 0
96 1 12.1254983591912 18.169832549348406 2.0121276659366165 0 0 0
94 1 14.14609987141805 18.26237228015503 20.221459469205595 0 0 -1
194 1 14.217724896932419 18.192255238820877 4.046878532988571 0 0 0
100 1 16.147455784230683 18.200251523929726 2.0009382569502545 0 0 0
98 1 18.22282106474699 18.172981621054262 0.05945957784806047 0 0 0
198 1 18.218091342241895 18.263815507752756 4.040207219462124 0 0 0
103 1 2.057911635589728 20.199810970893182 6.076774801357267 0 -1 0
104 1 20.24222597256622 2.0083483589411166 6.090269713744232 -1 0 0
201 1 0.015504850839302118 0.031315515078632686 8.08389740160433 0 0 0
202 1 1.9969229633094638 2.0678425122597046 8.116374538528136 0 0 0
123 1 2.0763955788437323 4.013670783959855 6.047339211893028 0 0 0
221 1 20.185273177017446 4.0597368487839445 8.050744367749832 -1 0 0
108 1 4.059006348544422 2.0383561587151475 6.094363611135836 0 0 0
205 1 4.076808996948794 0.04822949215589309 8.116525374017069 0 0 0
225 1 4.018086678584232 4.023894701089011 8.111016189669892 0 0 0
107 1 6.045279128620521 20.19387178322509 6.076236155222562 0 -1 0
206 1 6.071829111199574 2.0075586585785623 8.078936344536531 0 0 0
127 1 6.0432582363402485 4.0616517057926105 6.0759232285754345 0 0 0
112 1 8.105804715415438 2.002624433855917 6.077481875883697 0 0 0
209 1 8.09899255387699 20.20218666046423 8.11931256149431 0 -1 0
229 1 8.147445961096336 4.038529317188799 8.09732695611243 0 0 0
111 1 10.166875364946014 0.04210829693687792 6.074403873737152 0 0 0
210 1 10.158484098197416 2.0633332881099324 8.075952761621778 0 0 0
131 1 10.068793981790106 4.018275826635418 6.066441393320227 0 0 0
116 1 12.134095671543436 1.9911843423416855 6.035977614118942 0 0 0
213 1 12.132677456335431 20.222206947404125 8.113867278145152 0 -1 0
233 1 12.136630438318328 4.045677867042135 8.080077075995941 0 0 0
115 1 14.171032415588096 0.035728199414798566 6.039840528294113 0 0 0
214 1 14.128782221853644 1.9788345937935687 8.107154466405056 0 0 0
135 1 14.200018046218304 4.038241436681826 6.1082298541455 0 0 0
120 1 16.16242505219904 2.0288346690494548 6.041653873278043 0 0 0
217 1 16.229328209455556 20.22384496433115 8.142312626379017 0 -1 0
237 1 16.23909266003155 4.02904014038435 8.090307375623247 0 0 0
119 1 18.22419391102153 20.223272486840102 6.05583480547521 0 -1 0
218 1 18.2785372617407 2.0256856400898635 8.092990365494119 0 0 0
139 1 18.222063112561354 4.025081046622358 6.089932732830433 0 0 0
124 1 20.200094382790116 6.0718868194110485 6.058804454169165 -1 0 0
222 1 2.023500675704893 6.068308862491713 8.070919090337545 0 0 0
143 1 2.00031040131737 8.13242729709769 6.109911667245824 0 0 0
241 1 20.201466257662542 8.141131089407008 8.109191889997955 -1 0 0
128 1 4.072210643137785 6.045366960545786 6.08910571746211 0 0 0
245 1 4.062715531231417 8.102976545828975 8.069050468451824 0 0 0
226 1 6.082069172426003 6.084439649988409 8.062756520084577 0 0 0
147 1 6.039787075426968 8.103958164451814 6.061095687394735 0 0 0
132 1 8.08368043932826 6.016202496705752 6.054530160635557 0 0 0
249 1 8.113503916892958 8.128097430550609 8.046570499917294 0 0 0
230 1 10.159874805745403 6.104786193718385 8.142192787082926 0 0 0
151 1 10.156261311591035 8.11101258368462 6.09033843017 0 0 0
136 1 12.166290775581594 6.050362606054177 6.045007156718839 0 0 0
253 1 12.136260612074787 8.100091635606008 8.09790694613499 0 0 0
234 1 14.166423695150723 6.105911924977943 8.108391556662141 0 0 0
155 1 14.151112374723018 8.136780198069827 6.050656741866147 0 0 0
140 1 16.193402274030163 6.038502525414847 6.095027268616134 0 0 0
257 1 16.220381919713862 8.079517240597012 8.07290952986678 0 0 0
238 1 18.24995443257217 6.121210548046469 8.090428894788692 0 0 0
159 1 18.242129633541413 8.09460098626341 6.076557475058594 0 0 0
144 1 20.18136565437631 10.12797839468353 6.094585204045559 -1 0 0
242 1 1.9913413410677048 10.106958775935412 8.124000895974246 0 0 0
163 1 2.028130407089003 12.146901593863353 6.074803458536048 0 0 0
261 1 20.233036504070757 12.153823199412514 8.100647885154544 -1 0 0
148 1 4.0760525982349884 10.122555497474075 6.080391030022954 0 0 0
265 1 4.087060102129727 12.163924175869921 8.076440631909652 0 0 0
246 1 6.078903633810927 10.145443827931906 8.13219374614424 0 0 0
167 1 6.038197264768473 12.161706914615793 6.050873616537573 0 0 0
152 1 8.057396534759807 10.134613442021854 6.059123545209505 0 0 0
269 1 8.098616347885455 12.16326669047122 8.07154239467537 0 0 0
250 1 10.167171951161638 10.120509841302733 8.141740912587393 0 0 0
171 1 10.09375965054134 12.151518475636657 6.067837180110147 0 0 0
156 1 12.204174907016998 10.086800661597085 6.051987718766521 0 0 0
273 1 12.152208255380259 12.219997529311264 8.10965376441586 0 0 0
254 1 14.183491395353501 10.128612816648248 8.058263903900542 0 0 0
175 1 14.107517998650433 12.157794993427572 6.038222739998449 0 0 0
160 1 16.21881244659338 10.139405147101627 6.078648142892767 0 0 0
277 1 16.22001490611981 12.190282722158265 8.086126790474381 0 0 0
258 1 18.191148224084955 10.092471863135408 8.089278506410908 0 0 0
179 1 18.238469980392754 12.13005453352507 6.073352836428891 0 0 0
164 1 0.10872808125664526 14.16921820330884 6.118312794033245 0 0 0
262 1 2.028376011144472 14.149752897176525 8.145828878536136 0 0 0
183 1 1.9984398522802778 16.182783143023862 6.0895477164260035 0 0 0
281 1 20.212029311330497 16.195036196694044 8.069455895078303 -1 0 0
168 1 4.02232120952843 14.144363951236645 6.077914154778884 0 0 0
285 1 4.041089407900761 16.190403251932082 8.08015167607521 0 0 0
266 1 6.121563800040641 14.188109154585065 8.106823439143197 0 0 0
187 1 6.053254792903051 16.234399090450648 6.110369476065935 0 0 0
172 1 8.019356318492274 14.158458522341615 6.07301328272035 0 0 0
289 1 8.093696431313598 16.180854318508697 8.110557888730062 0 0 0
270 1 10.083940560015412 14.111936614709258 8.084782618391502 0 0 0
191 1 10.160446462116019 16.207771545556476 6.077470480975415 0 0 0
176 1 12.148372765119156 14.229375001969423 6.1301072683703 0 0 0
293 1 12.134298011728653 16.228250244680723 8.125833604810747 0 0 0
274 1 14.181200947586706 14.159849490703774 8.127362808616713 0 0 0
195 1 14.170011355321108 16.15203636656742 6.1160857229061065 0 0 0
180 1 16.16547209674162 14.16678851393455 6.021317372542408 0 0 0
297 1 16.20024902286385 16.26630760260549 8.089871448201393 0 0 0
278 1 18.222640665178293 14.173757641610731 8.095327730000708 0 0 0
199 1 18.247532180590145 16.18374463072758 6.071430221110181 0 0 0
184 1 0.046984611466642706 18.254378327318083 6.094578231253071 0 0 0
282 1 2.0370801813444785 18.229810545575617 8.129909023578376 0 0 0
188 1 4.081728847950081 18.21441906059955 6.11195461306678 0 0 0
286 1 6.062281516145617 18.16289140440332 8.040860394686243 0 0 0
192 1 8.064950565047154 18.223594593740398 6.069962256342309 0 0 0
290 1 10.1131834012822 18.252675807870673 8.064817113047672 0 0 0
196 1 12.132657082794802 18.25288483998544 6.092613215138966 0 0 0
294 1 14.188314781786199 18.19429952486257 8.051888237863054 0 0 0
200 1 16.20665661505054 18.24473045361113 6.073727292346777 0 0 0
298 1 18.22418858788003 18.257969169902367 8.108489626753032 0 0 0
203 1 2.0960722499921185 20.244287364601632 10.120203626395057 0 -1 0
204 1 0.0030895709786592893 2.0337499166212325 10.203829768804656 0 0 0
301 1 0.057019277019308943 0.015377665094865047 12.115520535199382 0 0 0
302 1 1.9896967423596392 2.033689460615544 12.212142683625892 0 0 0
223 1 2.0441894968477654 4.065553665940151 10.114443824062953 0 0 0
321 1 20.240663417044765 4.027294039042035 12.150804989779173 -1 0 0
208 1 4.065869800658338 2.0298444391467916 10.093568486477775 0 0 0
305 1 4.053156232546014 0.03683720830296384 12.173933576328862 0 0 0
325 1 4.025152780558138 4.0304002643070005 12.19845886945287 0 0 0
207 1 6.065652661531282 20.191734580846543 10.127390196966514 0 -1 0
306 1 6.0913310228179425 2.0057599535248425 12.170968977833315 0 0 0
227 1 6.062537498035937 4.03400803392599 10.101270128045076 0 0 0
212 1 8.079910869785163 1.9876853334402336 10.073418211135737 0 0 0
309 1 8.103078940930773 0.01462406056176462 12.188805106659448 0 0 0
329 1 8.084523185069932 4.052686469111296 12.11058327400594 0 0 0
211 1 10.154092714374276 20.235150502317033 10.172550584175983 0 -1 0
310 1 10.071185345809997 2.0107158753525294 12.154440872770602 0 0 0
231 1 10.140836529823575 4.067690336465044 10.082862559643573 0 0 0
216 1 12.14610423258937 2.0058432659884327 10.122846299172302 0 0 0
313 1 12.172470476682726 0.009859546044796939 12.137683442175481 0 0 0
333 1 12.14671638981744 4.065948242945254 12.198505794176624 0 0 0
215 1 14.168355434433275 0.023059391060439593 10.101583435259599 0 0 0
314 1 14.180800226862067 2.0371807770805277 12.161823239073655 0 0 0
235 1 14.164983900962516 4.0442094216612325 10.076512678797732 0 0 0
220 1 16.227807004085005 2.0255427671570576 10.102676687207174 0 0 0
317 1 16.226869777122417 20.220922898462636 12.101732517253321 0 -1 0
337 1 16.21623131153269 4.088856281000672 12.119022760336343 0 0 0
219 1 18.192172126814622 20.2429730329637 10.115675128103511 0 -1 0
318 1 18.21004989403579 2.0440563492666675 12.152467964286886 0 0 0
239 1 18.2390071093453 4.006851034325482 10.1573970727049 0 0 0
224 1 20.163325341306244 6.027117615334831 10.17503182657635 -1 0 0
322 1 2.0270709276530683 6.031810520602257 12.150816046030483 0 0 0
243 1 2.026258968376112 8.083505286792978 10.158848400146526 0 0 0
341 1 20.20810968110111 8.038291382749854 12.149473107691138 -1 0 0
228 1 4.022474767193667 6.00987542827733 10.085950493434394 0 0 0
345 1 4.100637057245681 8.11646472685454 12.174317545175116 0 0 0
326 1 6.074865899419892 6.07503452480687 12.149718846269682 0 0 0
247 1 6.081683156239493 8.052295947698553 10.115250205850572 0 0 0
232 1 8.11409629732293 6.109264032001264 10.138027656464352 0 0 0
349 1 8.107055140654209 8.086040765945809 12.12504334672247 0 0 0
330 1 10.116138023154507 6.084877769955948 12.168068280933742 0 0 0
251 1 10.078263543720523 8.11417080818798 10.08486277836056 0 0 0
236 1 12.219638438291897 6.071367701286523 10.12431783488163 0 0 0
353 1 12.102426825412868 8.112316498631822 12.142132050129378 0 0 0
334 1 14.10740868197535 6.112908226697719 12.144689387693518 0 0 0
255 1 14.124538388215516 8.123274632456447 10.065150436280268 0 0 0
240 1 16.17288029437646 6.029038881121863 10.08048579412762 0 0 0
357 1 16.247595410589604 8.090768453219617 12.20024852153719 0 0 0
338 1 18.275103521850983 6.087093446666514 12.128302179445447 0 0 0
259 1 18.23314316497774 8.115790872754022 10.114082950708394 0 0 0
244 1 20.23324718215325 10.039860966925831 10.10950931055944 -1 0 0
342 1 1.988461315788058 10.121395539204258 12.14743448984686 0 0 0
263 1 2.009095526658649 12.245722005961442 10.178805264257607 0 0 0
361 1 20.22493377401714 12.187883838219651 12.135881658289902 -1 0 0
248 1 4.016858367353017 10.142631694322077 10.085755474130309 0 0 0
365 1 4.035985837352381 12.173370277530964 12.153871281812584 0 0 0
346 1 6.113256821979484 10.105605548547167 12.141987083675867 0 0 0
267 1 6.051932041785562 12.03753314588906 10.090194147211859 0 0 0
252 1 8.093426037836457 10.160815502747472 10.153271945666082 0 0 0
369 1 8.046984911192226 12.150326420001514 12.139283148169852 0 0 0
350 1 10.170204974732698 10.153077797801668 12.137972242383407 0 0 0
271 1 10.12337068928522 12.095992246250614 10.152994208116619 0 0 0
256 1 12.166849591657169 10.144767946888475 10.136918385412816 0 0 0
373 1 12.170001851781523 12.192258256920773 12.136622671563835 0 0 0
354 1 14.19937100575329 10.085656616574685 12.105122781340581 0 0 0
275 1 14.182825062267955 12.145137317341424 10.147691197177938 0 0 0
260 1 16.144118716768773 10.077723669826455 10.099947335321904 0 0 0
377 1 16.224907814938934 12.186013630189798 12.21623459485382 0 0 0
358 1 18.22758631069656 10.158333008517959 12.191742055057539 0 0 0
279 1 18.230962057325655 12.12765579317225 10.143501403071985 0 0 0
264 1 20.219957734046965 14.177425079617633 10.145768493402944 -1 0 0
362 1 2.0343506850289685 14.154586053759443 12.1382612694616 0 0 0
283 1 2.022366089467071 16.195903427429947 10.136649845528833 0 0 0
381 1 0.05572790587696491 16.165698264204668 12.13845075929559 0 0 0
268 1 4.044710924608297 14.160938177030923 10.124825953938016 0 0 0
385 1 4.101299603322159 16.135952988825224 12.167814419480374 0 0 0
366 1 6.121627919071916 14.14620407876099 12.148026232289633 0 0 0
287 1 6.108136600071579 16.190236563505234 10.161998209823519 0 0 0
272 1 8.096315234023779 14.21956246543923 10.060089492028235 0 0 0
389 1 8.120451309295825 16.203933700534083 12.107798203256774 0 0 0
370 1 10.105531380860059 14.226440750057481 12.133783035655918 0 0 0
291 1 10.112722364634129 16.133130607686653 10.102869261099652 0 0 0
276 1 12.156155869993096 14.240873023864893 10.130810950051034 0 0 0
393 1 12.182707482889535 16.18688223457072 12.154767377661923 0 0 0
374 1 14.151843102724474 14.171467554196767 12.173112528169783 0 0 0
295 1 14.196672593353066 16.21880001704564 10.156696631138951 0 0 0
280 1 16.16140673454024 14.174102876140884 10.145869973009946 0 0 0
397 1 16.2022525967246 16.1920770771574 12.156219967456943 0 0 0
378 1 18.195758437551394 14.170416813639042 12.158393859564558 0 0 0
299 1 18.20318626089763 16.18161815200806 10.179947735589106 0 0 0
284 1 0.030485580705248306 18.261926159267496 10.128919748697635 0 0 0
382 1 2.005140148393025 18.185745437848833 12.144588856803205 0 0 0
288 1 4.0527746868817625 18.212974456967572 10.062579640582415 0 0 0
386 1 6.0585228026345606 18.218320997688405 12.182254235036776 0 0 0
292 1 8.096409918663692 18.262565125828665 10.169225681501066 0 0 0
390 1 10.131253495713123 18.228715705749114 12.185247619014568 0 0 0
296 1 12.156392315211283 18.192635354939203 10.136675696815384 0 0 0
394 1 14.178501684050175 18.222323633420473 12.184104032817956 0 0 0
300 1 16.225890103790807 18.250034691578712 10.147615568325758 0 0 0
398 1 18.239995075401875 18.189306375231055 12.14525134469208 0 0 0
303 1 2.0340572850426106 0.007579879820670552 14.206541740852662 0 0 0
304 1 20.23955060132863 2.0280650993789706 14.125404746839404 -1 0 0
401 1 20.23832872134864 20.23958519809931 16.183757675822637 -1 -1 0
402 1 1.9948477270801592 2.0366753776390762 16.201995762362138 0 0 0
323 1 2.0312302667470887 4.049089887391728 14.167244447253704 0 0 0
421 1 20.234915343014503 4.0580169524303855 16.197721130957422 -1 0 0
308 1 4.051053593492577 1.9845710146975895 14.143637662516932 0 0 0
405 1 4.0759578947530475 20.20284688729524 16.22585341191257 0 -1 0
425 1 4.086595937637505 4.022502850015838 16.214002289408402 0 0 0
307 1 6.066166433570584 0.021539672315753763 14.172076548222396 0 0 0
406 1 6.086236725852769 2.0272901486515233 16.193923963546666 0 0 0
327 1 6.055620868013026 4.087491750531348 14.163148526551348 0 0 0
312 1 8.098603321101084 1.9769888315108293 14.179560734595322 0 0 0
409 1 8.071425561487247 0.03600926774371519 16.160042804495465 0 0 0
429 1 8.114933795596802 4.124066653819859 16.2013230205767 0 0 0
311 1 10.073265888493209 20.219398001300004 14.16651106973779 0 -1 0
410 1 10.094857210521978 2.0604110195158243 16.201477616221805 0 0 0
331 1 10.13579130712076 4.067687937357254 14.15568596060169 0 0 0
316 1 12.130550610565729 2.043742952730422 14.178907690329448 0 0 0
413 1 12.148212117086235 0.023234678892014356 16.178539328272752 0 0 0
433 1 12.15720764862178 4.077264165627837 16.15907454049577 0 0 0
315 1 14.156247663279377 0.07882313084437645 14.202022747611023 0 0 0
414 1 14.233679078101066 2.0398977189407264 16.214059086206664 0 0 0
335 1 14.160195413388614 4.072674197323442 14.172768207609943 0 0 0
320 1 16.221222385367998 2.051472296090861 14.164672677913794 0 0 0
417 1 16.1619781657447 20.22006291376347 16.210969003230858 0 -1 0
437 1 16.235986676292274 4.117495667385861 16.16841942728966 0 0 0
319 1 18.203026458442267 20.235438433997857 14.181757115650548 0 -1 0
418 1 18.179105620554033 2.0316588426009674 16.218278877208583 0 0 0
339 1 18.220023321895855 4.039759738775537 14.173613331530285 0 0 0
324 1 20.244833255612207 6.052315421690418 14.22309313883386 -1 0 0
422 1 2.0457396841079536 6.066778906070071 16.17841819843541 0 0 0
343 1 2.041588144924514 8.130380667304912 14.167565899384575 0 0 0
441 1 0.059257066320339835 8.076164338931275 16.23595423769109 0 0 0
328 1 3.999881137150302 6.082332624708976 14.237556943564192 0 0 0
445 1 4.0519763736420025 8.095821748117649 16.198793683871212 0 0 0
426 1 6.082940521722133 6.098190242367108 16.202966481540454 0 0 0
347 1 6.012917382295867 8.050190590741147 14.177327349488644 0 0 0
332 1 8.163938126363192 6.049412060858755 14.155923288278311 0 0 0
449 1 8.098152985827587 8.13567098465975 16.181379964619932 0 0 0
430 1 10.107759112792134 6.045679238509524 16.22344746359666 0 0 0
351 1 10.082394508336279 8.059189462604916 14.152560894484365 0 0 0
336 1 12.199892144073294 6.10516003609602 14.205801566046045 0 0 0
453 1 12.16500244314048 8.089697230937002 16.184290248985505 0 0 0
434 1 14.174823787939312 6.0570938300230575 16.131708134154067 0 0 0
355 1 14.198022862346896 8.084123998061703 14.210540979518603 0 0 0
340 1 16.165019882167613 6.082114315965677 14.15347946335687 0 0 0
457 1 16.227940892863952 8.068953372260964 16.164464895355987 0 0 0
438 1 18.26515610830054 6.151442287565385 16.227398225804368 0 0 0
359 1 18.21926660698511 8.134488656012305 14.151716006857395 0 0 0
344 1 20.231217535839903 10.151715773192045 14.212267718034656 -1 0 0
442 1 2.045983341073546 10.181816840495587 16.207392913822584 0 0 0
363 1 2.0516357352777796 12.124278808351411 14.197338664930625 0 0 0
461 1 20.15953781238541 12.144123468724239 16.207759666211086 -1 0 0
348 1 4.065849950173705 10.121656047398151 14.161170972907415 0 0 0
465 1 4.017677629985919 12.159692448439738 16.195429860089607 0 0 0
446 1 6.088588900099966 10.105817775190447 16.224196941553096 0 0 0
367 1 6.072845842430778 12.158398120303408 14.188991292010101 0 0 0
352 1 8.039343381789521 10.147015774013163 14.186122996870766 0 0 0
469 1 8.121269793877426 12.167146519671729 16.22918069473633 0 0 0
450 1 10.18664400828823 10.15857660383001 16.20231213399703 0 0 0
371 1 10.113159584358293 12.152707181773275 14.163532019837566 0 0 0
356 1 12.187048320031574 10.131404196729656 14.143532811968303 0 0 0
473 1 12.167754279936762 12.08572738161911 16.162889171763606 0 0 0
454 1 14.198421423251244 10.11337794845932 16.21012097542925 0 0 0
375 1 14.179714824129675 12.139647605865925 14.226233946633313 0 0 0
360 1 16.233902731707815 10.144461544736947 14.164539564131605 0 0 0
477 1 16.206953172953177 12.138898995918515 16.24538105064969 0 0 0
458 1 18.25043767437798 10.133196456660901 16.143396879479475 0 0 0
379 1 18.159525951126255 12.168411148797006 14.15916871503439 0 0 0
364 1 20.22808938185168 14.111934828554903 14.17839880464478 -1 0 0
462 1 2.0287243275452114 14.186469891404627 16.228191947742296 0 0 0
383 1 1.9891300591680376 16.20051407262909 14.101500670273968 0 0 0
481 1 0.003951536190866258 16.173882615549886 16.193490959482368 0 0 0
368 1 4.055705102950165 14.146424838653374 14.163756904181035 0 0 0
485 1 4.06752876148271 16.206523965317096 16.177642966104465 0 0 0
466 1 6.071654704678883 14.167228215919836 16.13472074814448 0 0 0
387 1 6.112805591690639 16.212994572391604 14.148705570377228 0 0 0
372 1 8.103972255264312 14.177815237793599 14.119734499008079 0 0 0
489 1 8.102392761868733 16.193336250172006 16.22137093203848 0 0 0
470 1 10.092789133295772 14.20923078309052 16.215999009758225 0 0 0
391 1 10.147020245502315 16.217170361151876 14.225031277933885 0 0 0
376 1 12.189505375710898 14.209760550854583 14.181492145884357 0 0 0
493 1 12.174637704883752 16.209502394253196 16.232196225906257 0 0 0
474 1 14.190700404676079 14.165446239431313 16.179056652450925 0 0 0
395 1 14.208543841252327 16.16984553601653 14.247398293355406 0 0 0
380 1 16.20818165639535 14.221504135395332 14.213233373069261 0 0 0
497 1 16.226579893453607 16.184918444677592 16.222688016598827 0 0 0
478 1 18.18708677512689 14.123278496771333 16.21278219514231 0 0 0
399 1 18.225559681850484 16.21167456457132 14.207416120469873 0 0 0
384 1 0.022736291077424226 18.226498371752644 14.21451122521139 0 0 0
482 1 2.033937824553802 18.184365716469557 16.177950864022545 0 0 0
388 1 4.065959636706462 18.248920139509714 14.173989751838498 0 0 0
486 1 6.051882729480949 18.184203180181534 16.24072481838673 0 0 0
392 1 8.051802095374528 18.233886519486568 14.123486987736166 0 0 0
490 1 10.103797225450585 18.28264422810726 16.15648808595104 0 0 0
396 1 12.185230319326433 18.184421350174087 14.191376727235475 0 0 0
494 1 14.140092218193768 18.146384221579527 16.181087549253142 0 0 0
400 1 16.203344573764163 18.21051387929317 14.107709539732502 0 0 0
498 1 18.195115673359304 18.25035215958081 16.178437182260364 0 0 0
403 1 1.998965648218038 20.231074887546896 18.21280072570098 0 -1 0
404 1 20.201296844566283 2.0015791323470156 18.25641381556834 -1 0 0
423 1 2.0308664554502958 4.0601239383338985 18.18130403835452 0 0 0
408 1 4.041120005550446 1.9560252045500424 18.252386141139386 0 0 0
407 1 6.0409433498315295 0.02029817853735656 18.231419381724574 0 0 0
427 1 6.05755908247473 4.051908770824409 18.242978703346154 0 0 0
412 1 8.094797641706664 2.0381095657104233 18.202316894110492 0 0 0
411 1 10.13614344302601 20.217426825287287 18.202813019349477 0 -1 0
431 1 10.121197221850984 4.087822553818874 18.229131702790834 0 0 0
416 1 12.19788411448932 2.0203121938853923 18.266494797970008 0 0 0
415 1 14.177094994101026 20.19535195478234 18.219536206346763 0 -1 0
435 1 14.152920399823644 4.097824281863497 18.18060874017507 0 0 0
420 1 16.215459180772008 2.015788217515431 18.261840198148537 0 0 0
419 1 18.20203665894392 0.042650834116930846 18.249025651130903 0 0 0
439 1 18.295341391541395 4.081848541129318 18.159562382136574 0 0 0
424 1 0.019715772633606823 6.083399042777601 18.186559869462485 0 0 0
443 1 2.014110143075313 8.103122241097473 18.266837708230028 0 0 0
428 1 4.018559650640983 6.091276159245428 18.211281678195824 0 0 0
447 1 6.1090746712618 8.115608381842817 18.233625169974903 0 0 0
432 1 8.112653007195565 6.039101945389749 18.20855347741219 0 0 0
451 1 10.106076736132632 8.09551428221307 18.232041145831214 0 0 0
436 1 12.148974065154425 6.03507858592834 18.207338801076027 0 0 0
455 1 14.158154595606812 8.102110800375065 18.18304095903581 0 0 0
440 1 16.188016321322 6.0665168217681 18.168079483585917 0 0 0
459 1 18.194060051987698 8.142458045172035 18.213817173212426 0 0 0
444 1 0.008230256385993243 10.161262184735731 18.23486207267957 0 0 0
463 1 2.0451526841002496 12.176403252473412 18.22414207621346 0 0 0
448 1 4.068936584353519 10.146048221869757 18.201248073123036 0 0 0
467 1 6.073478924578626 12.207170804971238 18.26554787333603 0 0 0
452 1 8.114122964217405 10.063406974962612 18.22775870416425 0 0 0
471 1 10.15653122506239 12.170136299421932 18.218556070607328 0 0 0
456 1 12.127812877618469 10.160968984739972 18.19357414574642 0 0 0
475 1 14.209470067733871 12.145681408299515 18.235047175898192 0 0 0
460 1 16.181809698751973 10.09769567633389 18.23972323529512 0 0 0
479 1 18.230815677107834 12.105416731707004 18.152885687224046 0 0 0
464 1 0.0016288204405748284 14.180418928997305 18.22699756659793 0 0 0
483 1 2.079201786428878 16.181895654679774 18.234662925751447 0 0 0
468 1 4.050962840524871 14.195878131280399 18.25798638923062 0 0 0
487 1 6.0550429927589775 16.204016751876694 18.166590633238254 0 0 0
472 1 8.138084660353126 14.177922302631382 18.234766522513034 0 0 0
491 1 10.125929610698492 16.221270178616106 18.202066803165337 0 0 0
476 1 12.195895429987843 14.1700215318408 18.20734476506019 0 0 0
495 1 14.175543947661028 16.218140542488584 18.26366358881514 0 0 0
480 1 16.211526287978103 14.167874291204164 18.222954933545033 0 0 0
499 1 18.20067940443487 16.170794577862925 18.237470314859326 0 0 0
484 1 0.04423405366301051 18.23080108239223 18.207400916568506 0 0 0
488 1 4.027215492681955 18.221294704484883 18.22414631565296 0 0 0
492 1 8.109160766778265 18.19384839147994 18.249264383891 0 0 0
496 1 12.153091514880689 18.216339125164 18.220694595299765 0 0 0
500 1 16.159280689263774 18.24163769737191 18.22967635169373 0 0 0

Velocities

1 1.297973083706311 4.168362075408612 -2.877827548105218
2 -1.4963314648683932 2.618756340043105 -1.9488296992851337
3 -0.5833339601883167 -0.26856399924976265 -2.2467504223306176
4 -1.4291750192930492 -1.0965451050039419 1.1115979213709837
101 -3.157848764647032 2.8624824046132153 1.412309062492431
102 -3.473849445132175 -2.0125089552955666 -3.551178297311077
21 -2.7210097169398453 1.9730594307918932 -2.0738617745071632
23 -2.4258025148334244 -3.851404774806441 2.7058364643962545
121 -0.21919656837864943 -2.608835196652463 0.6122987236077647
5 -0.5425363549028275 0.4753457615063588 2.967200266313163
8 -0.7752583378342297 2.257618175310551 4.792622351638236
105 -2.9821021450116225 1.8917318149700422 -4.667515973556979
25 -0.04593965260870001 -0.7980228352032388 -1.917327650603065
125 -2.942032313192906 0.5228618340617168 0.19640134632282732
6 -4.08530857047196 -3.9750636278306017 0.19282656528302336
7 -0.7047243194508365 1.8510053922876555 -2.103749278413949
106 -3.8072649303084947 -2.324277276312636 -2.108249358798698
27 -0.4016554576146745 0.3594330511570349 2.1035973792011404
9 -1.5963143592107907 -1.33286968072693 5.189509777287812
12 -2.443314779377181 0.3678995931744518 -3.069989683767457
109 -0.022567777581385992 5.719341598996883 -3.4956371332027474
29 -2.5271446291284927 -1.4426681941519788 -2.415056868138616
129 0.7033819545075013 -0.4035106071667215 -1.5386725490268405
10 0.8898658670456225 -0.14363003289493745 7.129343821207506
11 4.014072652744239 -4.784760986054871 3.5401335130977674
110 2.49560702153057 0.6279415804180273 2.0411374156020963
31 0.089706238542558 -1.230889689305355 1.9665290219847809
13 0.3164989753816478 -1.9590400773687549 1.4108874239003995
16 0.4486922432097486 -0.5292423289058159 -3.1644823267363007
113 0.11305002095014689 3.395625662848706 -2.6107825855513793
33 0.9142820179335072 2.2659929946755417 -0.6675464844893428
133 1.8932976812665872 -1.499762381756794 1.2771557344405902
14 -2.5668004080722713 -0.30954463461421267 1.0675590735858518
15 -1.7784918976314588 6.347672770188707 -2.4725442651149145
114 4.598962774441228 1.241525528615158 1.6847624219359434
35 -2.98978794872898 -3.0092577907202394 1.2780047703259667
17 -1.85177322754181 -2.097922609878598 -1.9829324351818982
20 -3.1900446487827105 5.372103147191841 0.20611852831739946
117 -0.44157203816364643 -0.8337264419684417 -0.38730044116377943
37 2.1347774799623025 0.6153928444438159 -0.7029308907096411
137 -2.0267352798126677 -1.6449505724736302 0.47861312763227226
18 0.4256407079191787 1.7451615850676774 4.864393378670049
19 -4.5380712097867875 -2.044897060521136 4.786421020605489
118 -0.9459079013154708 0.339582452799359 1.0867761561438603
39 5.423176368755618 0.07950942780246915 5.199813161384097
22 -4.693374346577998 0.34373950342389276 4.246359347583082
24 -3.692411712538494 -0.5645283410207961 -2.943020548055096
122 -0.5404884030305203 3.6310917736229373 -0.8694046256680059
41 2.6723918082068945 -2.5002851845443366 2.7162889270491535
43 -0.423618460303538 -1.2931040020914515 -2.540484914597541
141 0.28847852808090535 -2.6127353902986092 1.3054009100555795
28 2.498112794038443 0.5188974500401634 1.309076278930419
45 -0.5514209449890487 2.198761683229581 -1.6292643139332355
145 0.8207054217227387 -0.5116017068517819 -0.8719687405695971
26 6.20731331710103 -1.6846831166600518 0.47251326500749274
126 0.2642164253720184 5.219076204581293 -1.2591173092802106
47 2.1291463871460703 -7.240448410777588 -4.374631874499491
32 2.7940073853338236 3.5881290852793364 -3.01321265854179
49 -1.5568666677853396 3.0928325014622953 0.9688213654092309
149 5.106480649650195 2.7543964251578603 -0.6528569250283166
30 -4.908733741206155 2.547300760862251 -1.8226572462594437
130 -6.992347583747552 2.9432538849524064 -4.326395580765069
51 -2.6439897069668565 1.378805525094322 2.931428522650989
36 3.2073550234343884 0.20740785126162115 2.996005356596778
53 -2.8829799032329855 -2.4044000936324106 0.4281152248550762
153 3.3624455392453347 1.710044686397771 4.9419893557292935
34 1.2659112001956005 -0.058138330444333204 2.869547421832652
134 6.658782051276459 0.12059537437809335 -5.709374564467281
55 -3.810324185878991 1.1237386217569503 2.585276808430313
40 -0.6519278447807546 -1.2975077831037867 -2.5004641245762516
57 5.566333728025502 -0.44713600681625365 2.3953548473678072
157 3.4477987992351573 -4.428915801197162 -3.2344974352343008
38 0.9025687418375511 2.075577443284049 2.942279108624765
138 1.3356375493007175 0.7983144275783262 0.5583779334294139
59 3.685093108972327 0.18006301931161844 -3.2662997549197224
42 6.5193036712270525 -2.2814112738143377 -1.4619163435714624
44 3.647090406864262 -5.889289866803523 0.7260587820878291
142 -0.5581235989861569 0.4890441552601295 2.041988310080022
61 5.996026201428639 1.1352196755414674 -2.0145368054762645
63 -0.7762532935709413 -3.4890540620688797 -1.6025392932601255
161 4.771924025097887 1.8663153185423127 0.22003351029811447
48 1.5435919421981565 5.457189122019058 2.9758613490343526
65 -0.3669701143527436 -0.9358218278841437 3.1070008585814772
165 1.3861441854106569 0.9671144227921313 1.9213714522869176
46 -0.7799444395411884 1.0615512795955289 2.561387214707642
146 1.3803834150106868 -2.76052078573879 4.303817212291544
67 2.442023908907784 -1.6339844234278593 2.396719082905088
52 0.4111958730605466 4.958117604137183 -0.6371568734958994
69 -3.644578403761004 4.794237180821323 -1.6952777761268212
169 3.3904514241502253 -5.030668440462481 1.6610282237364629
50 1.2094552085626067 -0.4626035084092442 2.6826620075852814
150 -0.8408552468470848 2.1872731318873617 3.998895578821353
71 -0.7923334587073776 4.826736844001093 -0.9021742338155869
56 -2.545162241682139 0.33083862322570257 -1.619169792851479
73 -2.1193460640177495 -1.9353465924543296 5.43553304813633
173 3.569138701308398 -1.3741846911554847 -1.5787804729547164
54 2.1554729622081603 5.48878721273018 0.6091042369693092
154 0.7949401235603003 -1.7584747918063548 0.9118931027948972
75 -2.1712725698316495 0.23767834345079764 7.0716442700785045
60 -2.565220703028766 -0.3945129349822089 -1.093733436652578
77 2.3522128421889907 2.904346107115349 3.6827658897151987
177 -1.34986683249414 -3.132074003740189 1.0256499161738757
58 2.059254078638639 2.898802307024395 -0.08312103010560372
158 2.781415202853457 1.8617075203257696 -3.5379517987753015
79 2.490847031055733 -2.9230582162835073 -4.839797690607945
62 1.3941409023611133 -0.6682669896094777 5.240315933180589
64 1.0187734318431687 -0.6736330720767312 1.015627403544072
162 1.6541460522836025 5.096330750285939 2.950819880614859
81 -1.5708459662447538 4.396881829048921 -0.5009366844847281
83 1.5405981315234318 0.7605365980384735 -0.5297570221220109
181 3.1375230912631262 2.8407912876782637 -1.1475579344943247
68 -6.39509456425799 0.17990770608487675 1.5699457459674235
85 -3.550464152945636 -5.79307303718198 0.8617953112776852
185 1.238105077738611 -0.7475024450110792 3.2122011681501617
66 -0.9527476950175079 2.999948226293782 -0.9357145896166674
166 -0.41685300048992935 -0.7712591971206914 -6.901406950669614
87 -0.8151819629725763 -0.8174792550414312 5.4584453659030405
72 3.612181771642584 3.6320777395854265 -1.1550331543806491
89 -1.26713360522312 0.5049452959767399 -0.648173516592247
189 0.38436464643664714 2.495899126857208 -2.77465536305204
70 0.8689754944258761 -3.680240848147981 -6.311846778624452
170 -1.7579727282563162 1.6664530551095287 -4.067768073846319
91 4.14882503295228 -4.37999532735283 -3.133922456073886
76 -2.183377502002034 0.571220324111496 -0.8606564659114829
93 0.32207131046023263 1.6814328188156815 0.38375975465995793
193 0.9958687048391103 1.723485284800151 1.4245907350967653
74 0.8513413711200675 0.10407249728240793 3.552558283618354
174 -0.5732771913380671 -1.3916457315810864 -3.227667723028596
95 -2.5986437271277443 2.539146902816954 0.772024755446196
80 -2.014011348531901 4.598482047051313 -0.691096948773233
97 -0.8624330989301331 -1.933593494774682 -3.4823075167515225
197 -1.2943092663152354 0.0182647318332228 3.4596374443253506
78 5.489300539940031 -1.0544106883418285 -4.073440336408319
178 -0.6160294320542132 -2.287913738687393 2.0177106519694457
99 0.32815071769143783 -4.280651409990424 2.123147654975988
82 -5.887207747728803 -1.4541726360245337 1.1583273256801083
84 -1.387836766255956 2.3897482543416704 1.8044029261402923
182 1.3779772457896855 -1.3484043940572898 0.1504170958568
88 1.7017166153390781 -3.2406779434541346 -3.416565621204785
86 3.8513688706270357 5.587832049401561 -1.3250224782646585
186 -1.5772470599812791 -1.8370634232104155 -1.3077742050587498
92 -5.325417101599371 -1.914010261103484 -0.176434650837024
90 -3.3045855105039443 4.037202271820205 4.282334379754227
190 1.908050144680006 2.5529564079639386 -0.797398369374363
96 -2.200936751285216 -5.117592644237421 -1.2805694579433828
94 -2.766856523806812 3.679650413761511 -2.4636785721992194
194 4.025290112480597 -2.9184305367120094 -0.3391968448908825
100 -5.033504272944779 -2.3035331959004837 -2.4910916570626327
98 -0.12502453138808595 -4.770068744870036 5.497007332750331
198 -0.5534461984152298 3.6423514431367816 -0.9917403553957873
103 3.1765128321025116 -4.5667221003837355 0.11122389238431044
104 -0.4697688974422655 -1.759931107872594 1.336641258031289
201 1.443439644592437 2.9008208022445605 -1.4399755200333424
202 -2.959970615084007 3.9667058996219295 1.5718477450345634
123 4.662837765422575 -3.554772305092614 -2.792573439034381
221 -5.964974548413296 0.9420071486834861 -4.693202672278452
108 0.7116478537124156 1.018710195413066 1.7024726926473022
205 2.482496558858576 4.478469840046782 1.474598198642608
225 -3.0870123151356834 -2.6093122529601183 0.9812523443638664
107 -2.900154984990496 -5.18531791581141 -0.07204863889369166
206 -0.23787294936284054 -1.8121769611534257 -2.1409951650442345
127 -3.066654374540551 0.9005003670356586 -0.047727619589880345
112 0.3364281082810798 -2.393957329531124 0.16549956992861095
209 -0.09995389835607711 -4.4646418747940135 1.7650571881509813
229 4.407716275161325 -1.1288637239845047 -0.24086278656615337
111 3.8583515309637555 3.842261875381953 -0.12180305739376454
210 3.2373606228610847 3.393046273156444 -2.269792697197437
131 -5.2999695137927745 -2.9755964854504224 -0.9719555876412942
116 -1.3728742254207176 -3.272114733803991 -3.776214989534413
213 -1.6246779177317474 -2.5772501722061985 1.3387520635789443
233 -1.1976810319646818 -0.501846445407845 -2.0860681793472957
115 -0.32165041273471723 3.1530277350357316 -3.413437073341582
214 -4.336953123780095 -4.582199272292346 0.5818738654411407
135 2.378942996832156 -1.1903341959977793 3.228736444687826
120 -3.3830299612941994 0.09881004474723062 -3.053103736493157
217 2.8308867581020203 -2.2419724925718034 3.8662815147392102
237 3.9004571130367998 -2.233021607951404 -0.9483363428930291
119 -0.026894342613310977 -2.352662503090781 -1.830489443869407
218 5.203600623194222 -0.1790432615572981 -0.7049580368610893
139 -0.2535241573588257 -2.5022896563093693 1.2560731812398098
124 -4.479351586441014 -0.43472508867766 -1.623079859355483
222 -0.5226923278759295 -0.6614349549838304 -2.867842871317376
143 -2.5289309526921944 3.072620558968498 3.2978358409225974
241 -4.390685669070957 3.720960907443955 0.8845134115474839
128 1.9152074681932165 -2.8604578634731594 1.233990304420106
245 1.0922831948087912 0.2254504966343526 -2.921663089740109
226 0.7248072363292273 0.7659916308056975 -3.5646276245637516
147 -3.3413826600602703 0.313192379771937 -1.399801625936628
132 -1.546419206077172 -5.607877211438806 -2.0034713444642898
249 1.185096496213902 2.704104207217453 -5.300347287445566
230 3.3713469825491487 2.79724010446356 3.88490336473295
151 2.9597530774327967 0.9602900681317315 1.4134234347720565
136 1.5495759993040195 -2.5338319586461777 -3.069348531160243
253 -1.2582225016905557 0.008185768223496105 -0.24306374861907143
234 -0.7571481303118901 2.8979264177260475 0.5606431908423526
155 -1.9680238964458594 3.2917644582994807 -2.390978560804072
140 -0.5532556043158409 -3.5350721050073863 1.8393277448908096
257 1.9549433434021346 -2.0570372173607114 -2.7100302088760095
238 2.4585124747146905 4.310341212431348 -0.8771969847243309
159 1.6242149987055507 -0.5383256942380239 -0.08204589517991831
144 -6.418155642201601 0.32982678787743264 1.762830412202399
242 -3.3548100661786897 -1.5508840782599795 2.328989399473716
163 0.21531535156954323 -0.4621770109362617 0.023690269640983513
261 -1.4824559417279226 0.29679550465111043 0.1784564385897553
148 2.2978762294032244 -0.243522245506954 0.5142602654760874
265 3.348177606624787 1.3739195363991412 -2.2813594193820097
246 0.3795292542348218 1.8156163322638779 2.9607352184173057
167 -3.578697548957348 1.2099955754208285 -2.416785492296624
152 -4.0971714053352315 0.8701123312365523 -1.3826597833300203
269 -0.19009779869353444 1.1391097938222106 -2.7460135245618478
250 4.0939832416280915 -0.2795706885685552 3.8391772543893636
171 -2.8329672865373414 0.175935759994203 -0.7687404753546916
156 5.04321489590382 -3.445359589810338 -2.1314794007432387
273 0.24168928654649313 6.684961197783856 0.9367240461706103
254 0.8682388469191369 0.5189287499439752 -4.123537614851951
175 -6.42234422820184 0.8494384269463295 -3.5213727336181884
160 1.9096299033564583 1.3407077526885123 0.18535314396079447
277 1.969897584506606 3.9029735012181246 -1.370025705540001
258 -3.2836179346041527 -2.9983395470939445 -0.9671698109489928
179 1.452656357326702 -1.7551144219756218 -0.2598940720216231
164 10.192641291429092 -0.541217648133031 4.069018329554405
262 0.23716262413894354 -2.343083617860716 4.478341099889169
183 -2.573952147040733 -1.4328188792644079 1.4796438424757028
281 -3.524123824024252 -0.30118943435205386 -2.7720766919271194
168 -2.6761573797304035 -2.7860037042501427 0.27798617886645705
285 -1.028408195947416 -1.0205094790908036 -1.8569151668011168
266 4.211814630664602 1.2886805980948215 0.6827132252164801
187 -2.1239807900617023 3.129527151373094 3.1615659259980857
172 -7.805472166131521 -1.3872168691675921 -0.5213950493920289
289 -0.4965026817417621 -1.5583124785651983 0.873742893626337
270 -3.948950204648528 -5.998343981946477 -1.5593974917103477
191 3.2121798154547734 0.7959835244778121 0.16050860785795837
176 -0.25012520518842934 5.255657718187035 5.118123141808586
293 -1.5188012617171966 2.845050958594329 2.529974805922106
274 0.7547787503401562 -1.3229678171385222 2.675268305950332
195 -0.4457931041920869 -4.507387377646547 3.880180284594248
180 -3.216446127984655 -0.7784628393596166 -5.14498977572994
297 0.22925051723126655 6.3838201179214895 -0.9542627280423486
278 -0.207709599603568 0.00039959723634540203 -0.500745872537155
199 2.3460753362480387 -1.4517957127729442 -0.4862413733338012
184 4.327239073088677 2.937951165379998 1.806071443053268
282 1.0332381357289482 0.5539783269879038 2.8280604648535212
188 2.7659998863353894 -0.8635803190279788 3.404075725236487
286 -1.2097805712122276 -5.858089568279076 -5.456108825216261
192 -3.2363178581316334 0.028834101686066056 -0.7153819813536269
290 -1.2585353540423283 2.71765608533579 -3.294014524140944
196 -1.4954800174860619 2.8611050467412036 1.5039370084537809
294 1.3169512552728524 -2.7122639982111623 -4.620293646152686
200 0.7598249257657348 2.036509578512074 -0.21046133455997543
298 0.20575431973200595 3.2199791707988252 0.8053373464227238
203 6.772675935326169 -0.26446224035014865 -0.4251437676124916
204 0.25564071213903344 0.6683996673511424 7.4914152494868755
301 5.256750352679571 1.1698639246610674 -3.2223742475869246
302 -3.3580604475089877 0.7090462803819323 5.893846503962787
223 1.5141262964113553 1.3220831064760428 -1.0013299489440661
321 -0.699768377949602 -2.2077044835422677 0.2175513782566397
208 1.4439996243386588 0.3766291493216357 -2.819588091254778
305 0.1264521391543326 3.2665063222022175 2.2073575018885285
325 -2.4126220842452955 -2.011244937961266 4.659860218417899
207 -0.9778966407816072 -5.525876444098226 0.2666236482908929
306 1.5326115004960152 -1.910756300462532 1.9092230021695493
227 -1.2115528754400067 -1.6374329470176798 -2.323891041648978
212 -1.9453638182021484 -3.7800315744038038 -5.012354269182558
309 0.16025327140538081 1.2407443087577614 3.6438054964928543
329 -1.5372444911389007 0.0677316262576921 -3.8574602112642653
211 2.7848762832994667 -1.2918683185522657 4.547309680050154
310 -5.153573484401393 -1.3899568691744892 0.38406527042059596
231 1.5938288739847428 1.604086139552037 -3.887299018438477
216 -0.43439764501936834 -1.844967552365376 -0.08617579259026084
313 2.222640094496776 0.7850584993422367 -1.0078028585792265
333 -0.3467019580602146 1.3988265759002276 4.565132114582151
215 -0.5572334932280034 1.9193382853856589 -2.2304433048294467
314 0.7240625084630159 1.1508403699819796 1.0875429569038906
235 -0.9169548756957845 -0.7887620801982209 -4.660019109057497
220 2.692899078368342 -0.025171688651933297 -2.1935943539560774
317 2.6162902598624975 -2.522881332113339 -4.520159791880088
337 1.5122958006890446 3.745419571885207 -2.9739755567244073
219 -2.76217422251652 -0.45866941669938865 -0.8314540213703617
318 -1.4180901022767118 1.5475852500460272 0.3225580076987541
239 1.4315533408205108 -4.2433850228991705 3.0087000697123565
224 -8.01797846990893 -4.727638774018568 4.583895836907633
322 0.0883264728756804 -4.140610964241544 0.14678122591613943
243 0.0324385528079644 -1.8455753488504436 3.288213988198196
341 -3.7604290292416476 -5.916197803664739 0.1496516228424861
228 -2.683620708163957 -6.24315164741833 -3.694855074413359
345 4.6877147608191745 1.4803014131462526 2.185942751249201
326 -0.19883905479262265 -0.15935559879241515 -0.0069771690260080925
247 0.49760293854845944 -4.62877504270345 -1.0541126201749946
232 1.291450368192154 3.147119608183286 1.1092522899565647
349 0.6271824473918814 -1.253050759764935 -2.2886978933724973
330 -0.6823188217019147 0.8255344690468175 1.5865003149680008
251 -4.438286465015544 1.3668939437871075 -3.780138167129699
236 6.572557223113621 -0.4219288089332425 -0.019955323206648806
353 -4.59247957395033 1.1731422490462724 -0.7643181920275197
334 -6.3215872063391725 3.6970965419929454 -0.5797365550932027
255 -4.70090340336704 2.1748804827819415 -5.721579497284771
240 -2.4833212912914733 -4.360951931237929 -4.235995106024833
357 4.592417043837908 -1.0110504074339497 4.640541518712152
338 4.7160528149914605 1.0059032637622765 -1.9073970462106933
259 0.6331861841436154 1.4684547256023417 -0.9573162307468657
244 -1.461292698027944 -8.032540866346753 -1.3481062065159972
342 -3.7349978358515803 -0.32543746933155565 -0.2496452014342204
263 -1.7490089585783632 9.00909537905479 5.081391120767537
361 -2.263138537672578 3.5242938974338873 -1.269016316280078
248 -3.4597282424038514 1.6160501642391591 -3.695232623563536
365 -1.3327867018789543 2.1198688542910022 0.3777385873076877
346 3.485484109718966 -1.9453438456378747 -0.717941827081297
267 -2.3142379682163567 -10.575631124038136 -3.29164871167326
252 -0.6038649087136084 3.3329855703797766 2.644912539635174
369 -5.050718722227255 0.12797418667487478 -1.0917497502370752
350 4.253810779440294 2.68855428964018 -0.9638934284474215
271 -0.18494538584784834 -4.946413131245369 2.74246627339289
256 1.7063323269452666 1.9522486017231362 1.0488441597373515
373 1.9828759516578254 4.210232882643564 -1.2031107761939899
354 2.49883823737092 -3.824459807584116 -4.1537477688624485
275 0.8819341414988875 -0.43276158093972533 2.1967654102193395
260 -5.189087294024719 -4.50904240849744 -2.378019773336998
377 2.2793493060554444 3.4810701624237343 6.312942433729377
358 0.4357075978398922 3.2276779629971513 3.89143863235215
279 0.5742782130551435 -2.2627363937798126 1.7302308143489196
264 -2.8889163546112315 0.3940292938490029 1.9246933737722323
362 0.7817387828790864 -1.8807093587088932 -0.9224576342090993
283 -0.33965751864974114 -0.3453392333074862 1.0373977095346487
381 5.025973488154841 -3.25398120225522 -1.0441216487104357
268 -0.3382024915431792 -1.2591846286262525 -0.06567494857494974
385 4.86745574320057 -6.033679979899727 1.7031679517501046
366 4.4329905261716105 -2.8425858378974778 -0.3367582501706013
287 3.022482319242542 -0.8002942096727775 3.5344260147467383
272 -0.4326206290754804 4.025792191549811 -6.18038498957939
389 2.048666433674229 0.5539630667434958 -3.9908445427796937
370 -1.8444802267620437 4.928483380957075 -1.503188581882851
291 -1.1698178642601722 -6.121220232445196 -2.2233957342358135
276 0.5986765090416191 6.351208378655765 0.5227261221593626
393 3.1643828767330247 -1.0781079101651436 0.6207439453626772
374 -2.05540393812083 -0.2924987606421066 2.3637289887607364
295 2.2622481940653825 2.0031636153606667 3.0446300851595134
280 -3.5998004748305656 -0.04160518955103535 1.9859445470123838
397 0.23510965169327888 -0.7333684795888912 0.7028508050527066
378 -2.7017976547289706 -0.25595719299147957 0.9077274910240767
299 -1.9325100507378281 -1.6548903888678437 5.202809109813687
284 2.7123056704983464 3.6563857252895366 0.2988679287442835
382 -1.795906257914177 -3.563902489185836 -0.4951754181490512
288 0.2739849678711788 -1.1834765652148567 -5.866220314349267
386 -1.8035597141661246 -0.473081995825515 3.0223894115660523
292 -0.30161371834067463 3.683480535646179 4.248761105636626
390 0.7218105867876992 0.33437843937991085 3.3976103311624213
296 0.6346237683924625 -3.0272580731361005 1.1569109157537927
394 0.39507284182788227 -0.0542196877690072 3.350679546684022
300 2.4728579264874657 2.4233845818800557 2.1874791191676897
398 1.8569415835463023 -3.3126469709927413 -0.37340446811496525
303 0.7416973493864698 0.5007145851150412 3.1651507075677996
304 -1.0045277558784915 0.11193837403987639 -4.536549401535331
401 -1.0572307701840806 -0.7479357787235645 -1.475367654821614
402 -3.0253005649950167 0.960772269345075 0.29990336426770087
323 0.4427692992161111 -0.23063761806522545 -0.5390294420863747
421 -1.256950777813072 0.5232566347867775 -0.24201758630416267
308 0.0050575624914099004 -3.9709551639078193 -2.728336724763609
405 2.3398502585397774 -4.3424711248469725 2.565884866276356
425 3.4595420118338267 -2.9095539540764395 1.4515326487410174
307 -0.977630674629845 1.840102502228008 -0.10983582463293107
406 0.9636249691057054 0.22821676765765217 -0.5180315683161502
327 -1.8376285278161026 3.5112296870149073 -1.0557991941146292
312 -0.2007140609563194 -4.411249657566968 0.5398410154512314
409 -2.910833324977212 3.1454607435403314 -3.580975044135383
429 1.2657531514356504 6.921387614477429 0.08488115499246333
311 -4.783279351767251 -2.7616697432953123 -0.7705411855723501
410 -2.80509627264332 3.3699552469629377 0.31063506004233676
331 0.9863107018136493 1.5500850708509615 -1.8421925439299212
316 -1.9719364772993382 1.6463295624339684 0.46215765869993425
413 -0.1402625123507128 2.175286817707792 -1.9764074030529888
433 0.6720058242303024 2.374061387088943 -3.8298590835403887
315 -1.6668968011091625 7.382278525321976 2.6338474425893836
414 5.767080089514453 1.4499485827081524 1.549947703616566
335 -1.2446035104252084 1.978053445521457 -0.27412052400176484
320 2.106355543948485 2.4315039862351737 -0.9895744124619342
417 -3.6476510233080734 -2.8006981376353406 1.0563674627027613
437 3.626729534164144 6.407615663205818 -2.955024011592873
319 -1.9694612422842683 -1.2091925421129064 0.590135361470134
418 -4.307377325112503 0.46796717557408196 1.80345123018074
339 -0.3431746722280178 -0.9073013439607335 -0.0642813781729532
324 -0.3469683003945504 -2.207277355530741 4.666719285626308
422 1.9064231647162289 -0.8560928416944782 -1.9471402138953147
343 1.3474382454738059 2.948252248874906 -0.6993832624514561
441 5.683485686371852 -2.1066385592271506 3.5323386732902757
328 -4.929446863747162 0.5730328392621816 6.013035978086815
445 0.008481618906035264 -0.305441065429933 0.12700916528952605
426 0.7418945283019345 2.2042972063425856 0.4272922742624458
347 -5.878932277085066 -4.902031613652605 0.3083533112383185
332 5.942716360363246 -2.500375727256716 -1.8037814280646036
449 -0.11855046773067476 3.351308244187823 -1.8188226554469449
430 -1.536424356666547 -2.701021721642885 2.305918843350335
351 -4.070052202428449 -3.761771856653081 -1.9933162649040028
336 4.644680768724531 2.9677129652075456 2.987220093566835
453 1.3310414207944399 -1.0121047854733434 -1.4083516471008528
434 0.08971611314248676 -1.7351441650671653 -6.3779640735616345
355 2.2966464764517824 -1.3385715678184482 3.346627131389691
340 -3.0742491968002095 0.5646011334887584 -2.1760192572456885
457 2.8078597901189037 -2.9258414041758933 -3.35927281795213
438 3.9893471261668068 7.402923589752183 2.5694991956062436
359 -0.25162275707714465 3.167503171487758 -2.0980925437106004
344 -1.5663223323449036 2.569086410302839 3.5733583112882843
442 1.8490549049138436 5.407628338915063 0.8886885787307724
363 2.299288896389891 -2.4036833017053576 2.2071280098462585
461 -8.391524680196907 -0.4564459549418565 0.781353906613305
348 1.5347358565964218 -0.26393806512783885 -1.3002693524850182
465 -3.0367595707231794 1.0265389561511487 -0.26530783517595136
446 1.1927631442902586 -1.6973890430792247 2.4587286039274434
367 -0.31551688487324026 0.7432235227855885 1.4646104384625578
352 -5.780861160081054 2.0598143011807855 1.1201632445249583
469 1.9955391357039036 1.6596456181952395 2.9676214532227045
450 5.844005439987347 3.109941944397016 0.14853201251432366
371 -1.1318308381401851 0.3854230410180318 -1.1188187342833675
356 3.6380512677713317 0.5061139666601484 -3.0980507467259977
473 1.7732947916389556 -5.929060930549862 -3.498079604748362
454 2.4499535509087984 -1.1994364761768732 1.0430601893171882
375 0.6323551130509054 -1.0230526936013788 4.908548099598226
360 3.1793127530014824 1.888428716069222 -0.8694998595539317
477 0.6829470001415754 -1.1495431560304403 4.455837145877505
458 2.500814861480898 0.5930353703930156 -5.33130019008212
379 -6.176805467199111 1.9081530334241243 -1.409337522274928
364 -1.9463148264367092 -6.0445130823664766 0.43608122110482955
462 0.19322130023009673 1.1947268028849427 2.69747722062241
383 -3.452346611029948 -0.020505818551299137 -6.931168642061031
481 0.17174546997520032 -2.500610380339531 -0.4850345632511621
368 0.3870157521040874 -2.587981878515758 -0.9905600394894948
485 1.5024047087925627 0.6111827431352238 -2.2886894632479953
466 -0.3485652538299925 -0.7080682398325585 -6.159658417010048
387 3.617357860153919 1.2900778736171474 -2.460203497964667
372 0.4663493335851205 0.3866468236612659 -5.220888315092705
489 0.1843452040271199 -0.48406022917534364 2.022625366829698
470 -2.929139230167634 3.3009331952113445 1.535948886397139
391 2.1017052642648193 1.7747742825851212 4.878930515587227
376 3.6718786369084935 3.356443723399637 0.801240452351446
493 2.2981521861541774 0.909209644792143 3.300054077086877
474 1.5846739713733187 -0.9239658573051001 -1.7262882145425051
395 3.3791767908080694 -2.798878131847022 6.945872611002421
380 0.8620774947361991 4.536042204412184 3.7733588088528958
497 2.690399203223276 -1.2565796011825145 2.411275457581751
478 -3.4882028097575355 -4.81506770370461 1.322152872206094
399 0.3400021946843078 1.1666915652185423 3.1795257729405666
384 1.969966414157126 0.2881117728152056 3.768305250422336
482 0.7833303602462396 -3.8865725311674693 -2.0589489058339905
388 1.3933545591591912 2.3408482388529985 -0.11816965790957543
486 -2.1324595589983986 -3.6979833072356634 3.9643166015078526
392 -4.739463034151273 0.8682596847623067 -4.771343564064011
490 -2.1194626524582865 5.685162073640675 -4.106552170116808
396 3.4458533167809775 -3.6960566746968024 1.5970702845846403
494 -3.1816744468724334 -7.353091433154625 -1.7638583525329758
400 0.3084764312449181 -1.1952472079194711 -6.3464545841222355
498 -2.7916353453160565 2.5500755265394472 -1.7824491323999907
403 -2.602574881600177 -1.6818981560043833 -1.1079876250478509
404 -4.523124097644025 -2.2994828886150147 3.026405551944652
423 0.4240375322693192 0.851894243216973 -4.0518860445842355
408 -1.0728776683801668 -6.747567496151369 2.662404424656526
407 -3.157725488728755 1.7295344507785855 0.703794137105598
427 -1.8181508913197286 0.043424434070967174 1.8133837016090586
412 -0.47436589785771166 1.0713105045203977 -1.9581756007414857
411 0.9923691681601226 -2.8401466639345565 -1.9334518870182285
431 -0.25850716982628524 3.3054707732467428 0.6323950379031662
416 4.550014027068807 -0.5605795817759245 4.031756253062868
415 0.15167287147208466 -5.027906848478593 -0.5307930115768004
435 -1.9155694312053069 4.466301348118602 -4.1394821807295825
420 1.5086966702383762 -0.8108233481713901 3.71584707564628
419 -2.093135628140936 3.7432200201017602 2.515453176896723
439 6.773342081281403 3.0531804853927538 -6.07373253102594
424 1.7950365677088937 0.8392393911743181 -3.4590355705972065
443 -1.1356515057694203 0.3238847235194312 4.077297437904437
428 -3.0715807797311454 1.5498230290019714 -1.06600850863686
447 3.161283491337553 1.3648379134022177 1.0125433528230947
432 1.0639846663869599 -3.3605479922127386 -1.4662462916753671
451 -1.7447229835277667 -0.4709672323216554 0.7038046126454411
436 -0.04516057581594959 -3.766984277646822 -1.5799251904293243
455 -1.5890295910322825 0.0934033493736399 -3.7794518827556396
440 -1.0436752553505622 -0.8311491172835553 -5.268265506769761
459 -2.7355876485788 4.138293237862953 -0.8887966715271759
444 0.7357112063939243 3.398979803499676 1.1311755478636736
463 1.8307868748259626 2.6454922510060626 0.05898242879702726
448 1.8404995979922392 2.073822710768007 -2.1939849067282746
467 -0.21723801355673403 5.523181367823444 3.9153545279348774
452 1.4167923424808357 -5.69314943527239 0.4487807910650782
471 3.0620965707483623 1.8891521317171975 -0.49769486080281644
456 -2.023938498685262 3.3944637049938264 -2.7391676934893656
475 3.3288311940665842 -0.3167013140544582 1.190973964333733
460 -1.6071764660372019 -2.679008694637295 1.5527675854650855
479 0.5987604224659661 -4.330696476705273 -6.6101612489093675
464 0.09034342659824204 0.6355014373484575 0.31577880530678715
483 5.009498130213923 -1.6751238939644424 1.063111073842871
468 0.07228500109397927 1.9871514937214618 3.2093601351466354
487 -2.002868977781875 0.4025565862284525 -5.356860150801492
472 3.5111854412142063 0.44163516341391956 0.9899320462618765
491 0.18974894181828167 2.2693131528868666 -1.997975605918364
476 4.565214883346792 -0.5121626080664837 -1.6060569624255523
495 0.1626549706971305 1.7226086459464125 3.8762442110086655
480 1.143080291522263 -0.7036785920354537 0.00391759836019136
499 -2.129468157594077 -2.545636118354405 1.2249413550771087
484 3.8860552036393603 0.6124046918222297 -1.668801179250521
488 -2.352147200287516 -0.2633864190238014 0.29120803512446486
492 0.8537844126654409 -2.716264005232493 2.3443806508450638
496 0.16155367709620186 -0.6765923166202277 -0.3184970578679227
500 -3.6694067037090186 1.6422056936310605 0.5295582385800665
