LAMMPS data file via write_data, version 29 Aug 2024, timestep = 10, units = metal

4000 atoms
1 atom types

-0.0020521139461534272 35.20205211394616 xlo xhi
-0.0020521139461534272 35.20205211394616 ylo yhi
-0.0020521139461534272 35.20205211394616 zlo zhi

Masses

1 58.71

Atoms # atomic

1 1 0.05282988883392199 0.036872151575541315 35.19201273371661 0 0 -1
2 1 1.787699949467414 1.6914857098400409 35.19539410922791 0 0 -1
3 1 1.7810923987354157 35.198640640532396 1.8264625767338631 0 -1 0
4 1 35.193686074113394 1.7313826347810157 1.7291358946101127 -1 0 0
401 1 35.18319056931073 35.188147526058074 3.5084092519456607 -1 -1 0
402 1 1.7311108080618696 1.7315311474013888 3.517117029183994 0 0 0
41 1 -0.0019473370131647292 3.488354534318809 0.000984445256328399 0 0 0
43 1 1.744527821090145 3.4851130675092867 1.7539524532112034 0 0 0
441 1 0.0225721495362686 3.5346962989688193 3.4785363551675252 0 0 0
5 1 3.4833624628175053 0.01444047059291034 0.05413597892237604 0 0 0
8 1 3.5197966458534813 1.7448938288307339 1.7501995003770965 0 0 0
405 1 3.4751823468162355 0.011781174064167689 3.5532497770437437 0 0 0
45 1 3.535177897092304 3.5231418999746835 35.174523881759015 0 0 -1
445 1 3.549343479834994 3.497806006343715 3.5192010324804626 0 0 0
6 1 5.271857891932016 1.7388157480973223 35.186198169957265 0 0 -1
7 1 5.248630834632506 35.18097484634888 1.724357553902622 0 -1 0
406 1 5.240293659778187 1.8105526832685732 3.5174821976696298 0 0 0
47 1 5.263244653722116 3.546752227092204 1.7623304663776054 0 0 0
9 1 7.042186121183983 -0.0015438393894815433 0.014432479519396272 0 0 0
12 1 7.0335894869235975 1.7671316250821207 1.7353683402134747 0 0 0
409 1 7.021524049853699 35.19256193338494 3.5133892383624583 0 -1 0
49 1 7.03334046159939 3.547036066941677 35.1745084875989 0 0 -1
449 1 7.053099991148701 3.533468503392824 3.5303172870913415 0 0 0
10 1 8.78338557065364 1.749880398814634 0.002980512429749466 0 0 0
11 1 8.80531584907319 0.004716761680000034 1.7781551709952197 0 0 0
410 1 8.792154173055009 1.7938872236336372 3.500098630168995 0 0 0
51 1 8.795294280271838 3.514886564136459 1.7613434496408908 0 0 0
13 1 10.54755927372174 35.17397768308948 35.1504390946618 0 -1 -1
16 1 10.536844503426366 1.7322006535073737 1.760936185817247 0 0 0
413 1 10.565027849223654 35.17356561589874 3.5547414645358524 0 -1 0
53 1 10.542263700905982 3.5605034599715375 35.19921039455479 0 0 -1
453 1 10.549881279016251 3.5271222978093797 3.527270410644667 0 0 0
14 1 12.358944600326865 1.7711792478992796 0.012387844139417946 0 0 0
15 1 12.329048101538497 0.013611614616903578 1.753826397351229 0 0 0
414 1 12.290195885468707 1.8141208645711437 3.481157432940101 0 0 0
55 1 12.368090073028295 3.5124877493756435 1.7108085860409128 0 0 0
17 1 14.093726763360152 0.003478121488806258 0.007689273201242937 0 0 0
20 1 14.06900754444793 1.7302776102156363 1.7211430242027015 0 0 0
417 1 14.091204750048842 0.00648974256068063 3.5345535644101886 0 0 0
57 1 14.090999540111328 3.4998915277577294 35.1919155504519 0 0 -1
457 1 14.102921603705264 3.487771438266075 3.553864454161498 0 0 0
18 1 15.852386838789869 1.7309525974876587 0.0452994872441772 0 0 0
19 1 15.86068119933488 0.017480096311894806 1.7722650829366429 0 0 0
418 1 15.844473539185184 1.7261565802631078 3.54064826699255 0 0 0
59 1 15.833213417459755 3.5455501291195866 1.7300793377486428 0 0 0
21 1 17.57743852042229 35.17254738641048 0.030664057451500713 0 -1 0
22 1 19.349319675289948 1.7831176812253597 35.18291062335309 0 0 -1
23 1 19.33263152942486 35.182725895545374 1.7618593721113285 0 -1 0
24 1 17.63821285461001 1.7330817438547683 1.7664584527660439 0 0 0
421 1 17.610843684158944 0.01799482386057254 3.514815156321098 0 0 0
422 1 19.31687758218503 1.7180301764271273 3.551624581189214 0 0 0
61 1 17.61666743797554 3.5251956499699326 35.18241081792214 0 0 -1
63 1 19.35251609881116 3.4980849699322625 1.721825951013745 0 0 0
461 1 17.627576447657148 3.5372854934243314 3.5317236181993383 0 0 0
25 1 21.15323229156344 35.174975690656076 0.018282445998577347 0 -1 0
26 1 22.87660211398439 1.7224095260949266 35.1744335985884 0 0 -1
27 1 22.896893603060672 35.17811369714093 1.8003113541646976 0 -1 0
28 1 21.070705927519274 1.7391220697487013 1.7168718154648228 0 0 0
425 1 21.133011543639455 35.19000001783614 3.518865392325316 0 -1 0
426 1 22.90002749280273 1.746883250454196 3.509705567743433 0 0 0
65 1 21.13248138114028 3.474899282163556 -0.0007744607698614805 0 0 0
67 1 22.87664038100025 3.538964646782335 1.786740312063477 0 0 0
465 1 21.12576592063562 3.5196779327398944 3.507784324921736 0 0 0
29 1 24.638937503403422 35.182426975753685 0.01441264821118887 0 -1 0
30 1 26.373986769920492 1.7467487468419811 35.17874461081727 0 0 -1
31 1 26.43470252385343 0.0533896000939304 1.7968897680733666 0 0 0
32 1 24.626684304255903 1.7130395865874624 1.780392970292343 0 0 0
429 1 24.69395134364271 0.012353070464619396 3.5142881900883203 0 0 0
430 1 26.35383778477649 1.7586378050602158 3.498885451125016 0 0 0
69 1 24.646917132620757 3.591193984367282 35.179165153101295 0 0 -1
71 1 26.369603987987468 3.534836193579537 1.7668714721483145 0 0 0
469 1 24.624898164777214 3.4594175741548145 3.5170775273188575 0 0 0
33 1 28.15284442531745 0.0022101389459247976 0.001747764455060383 0 0 0
34 1 29.91728799078019 1.7919780595208628 35.16444160716804 0 0 -1
35 1 29.903809930403582 0.010227239743700402 1.7682105111103132 0 0 0
36 1 28.143854395394136 1.7373748007936227 1.7682970996395198 0 0 0
433 1 28.18487877974752 35.17530038586943 3.5526917485314717 0 -1 0
434 1 29.904233757178076 1.805363045107525 3.522640240449125 0 0 0
73 1 28.15238658520115 3.508923142347756 35.19954017442268 0 0 -1
75 1 29.95151858897007 3.556188089342585 1.7457244390404203 0 0 0
473 1 28.214684286250794 3.5188906014511065 3.487132309307724 0 0 0
37 1 31.668632467808276 0.0372361050547753 35.196186734989446 0 0 -1
38 1 33.41086001625321 1.7077968408069455 35.16996879870634 0 0 -1
39 1 33.47172598642733 0.019623050643325212 1.7902824588357666 0 0 0
40 1 31.62521383671688 1.761787758072355 1.7382513886135071 0 0 0
437 1 31.693299520538403 35.199775630384565 3.5083347479660683 0 -1 0
438 1 33.4505402693664 1.7660314166320032 3.514265998141659 0 0 0
77 1 31.6682230917123 3.515384122875345 0.003028111292880262 0 0 0
79 1 33.45422037719604 3.563713898732842 1.7510595696137843 0 0 0
477 1 31.692957358557184 3.520708822138242 3.4961867321868927 0 0 0
42 1 1.7563994257829838 5.274459322917087 0.01583965971604781 0 0 0
44 1 35.19614692485008 5.303401054087713 1.7544915024863124 -1 0 0
442 1 1.8024380518891596 5.2485751793007855 3.5440702840369562 0 0 0
81 1 0.03002445725920392 7.043454237194885 0.03006691927720351 0 0 0
83 1 1.7625781052184963 7.026088748061011 1.7836707846167483 0 0 0
481 1 35.169265693746155 7.020605928821313 3.480364832555118 -1 0 0
48 1 3.534784099795815 5.307075285042327 1.7260111626297103 0 0 0
85 1 3.517844745740591 7.034564417791051 35.16580012952283 0 0 -1
485 1 3.48466530833183 7.040478339001415 3.516758670784386 0 0 0
46 1 5.292348775901706 5.247040885065526 0.03799236785196737 0 0 0
446 1 5.232235677876187 5.264122074756574 3.5206929813730814 0 0 0
87 1 5.255935218280397 7.028284321132789 1.7601724573527195 0 0 0
52 1 7.042676543082593 5.268264667848789 1.7451248733342568 0 0 0
89 1 7.037261506590885 6.9871152457388055 35.17310311908555 0 0 -1
489 1 6.996227624736937 7.077287675678114 3.5994798004422734 0 0 0
50 1 8.771577951243334 5.310544041661505 35.19436865258855 0 0 -1
450 1 8.826288828360177 5.284907298293568 3.4924148927281036 0 0 0
91 1 8.756946217609341 7.036612165895418 1.751859246565307 0 0 0
56 1 10.553862047792096 5.292644517990183 1.7306856987694703 0 0 0
93 1 10.55736844167388 7.004746873276471 0.014485896095443521 0 0 0
493 1 10.574380434950278 7.0226465917523555 3.4984911161893226 0 0 0
54 1 12.326136705792669 5.271359504801556 0.02849455956353372 0 0 0
454 1 12.338596820537676 5.3082740282511205 3.504808016870657 0 0 0
95 1 12.30171293499893 6.982543181543832 1.7783101331995823 0 0 0
60 1 14.061883768696513 5.368755775508353 1.7224675601306991 0 0 0
97 1 14.084346990475938 7.041092768008078 35.115780120051895 0 0 -1
497 1 14.099316944525846 7.043778350257275 3.5074707548124078 0 0 0
58 1 15.84357616435383 5.256789642602328 0.011771659952718845 0 0 0
458 1 15.849100652167968 5.292667201307783 3.5280345231915082 0 0 0
99 1 15.804256890142579 6.995389575387438 1.7361861046009528 0 0 0
62 1 19.350721124221412 5.249706326696295 35.194073248155476 0 0 -1
64 1 17.63158351245074 5.313351227825461 1.7037704107470943 0 0 0
462 1 19.35179551217451 5.280047757760623 3.4958323351559017 0 0 0
101 1 17.589266466517607 7.0721423971042015 0.04774254652384834 0 0 0
103 1 19.36936303059271 7.054271662261609 1.709853871235614 0 0 0
501 1 17.592044641506728 7.046509222838293 3.521017650407211 0 0 0
66 1 22.911485207468328 5.242425120168852 0.002200739158981026 0 0 0
68 1 21.210958488571666 5.213894495652758 1.7396542801557033 0 0 0
466 1 22.922580034150844 5.248458196058688 3.451178793389997 0 0 0
105 1 21.086241368653017 7.010045647861512 0.02121263018568597 0 0 0
107 1 22.90337563887653 7.074678512297292 1.7905304169459413 0 0 0
505 1 21.15679535454504 7.045822024077805 3.5163625223547337 0 0 0
70 1 26.410365951081452 5.306911372518618 0.03156986515355796 0 0 0
72 1 24.6503810594625 5.271454591272161 1.7629534715266244 0 0 0
470 1 26.433274119739384 5.264972229970854 3.5879348318405655 0 0 0
109 1 24.64737165607241 7.072643418079883 0.02801888219236713 0 0 0
111 1 26.419366325868673 7.00336283367699 1.768180392294361 0 0 0
509 1 24.605201023925623 7.0375403697367656 3.5291005541522766 0 0 0
74 1 29.947689278750197 5.284660439630033 -0.0014986673976790062 0 0 0
76 1 28.195403846840165 5.312876418528472 1.7486507010304644 0 0 0
474 1 29.907574303958256 5.231174004838469 3.52013699352534 0 0 0
113 1 28.130312572974564 6.9926822209356585 35.17255990066288 0 0 -1
115 1 29.91077291789833 7.057176887777398 1.7719693240880832 0 0 0
513 1 28.188956478616024 7.026096217652049 3.4969492988771314 0 0 0
78 1 33.38068778804877 5.287601510637341 0.014329489880411644 0 0 0
80 1 31.69714414945513 5.257195814226162 1.7020223231499845 0 0 0
478 1 33.40918468945897 5.299949951041002 3.500876377956259 0 0 0
117 1 31.650999249849047 7.0187444680810485 35.15513531398115 0 0 -1
119 1 33.37992717120134 7.045410468779936 1.7628393083057317 0 0 0
517 1 31.619049851714063 7.0244199559895195 3.4985767423001843 0 0 0
82 1 1.7970400020505009 8.820948692920823 35.165811428884325 0 0 -1
84 1 35.19376769395351 8.728547282775441 1.720115659179892 -1 0 0
482 1 1.8023298925437743 8.774883025765583 3.501780032162393 0 0 0
121 1 35.17210350170052 10.59408867056181 0.013100390681313962 -1 0 0
123 1 1.71808798746184 10.561933778089816 1.7804912356188511 0 0 0
521 1 35.14315170554316 10.53555869873569 3.4668855382887283 -1 0 0
88 1 3.5192426364589244 8.761452689426429 1.7371036608507522 0 0 0
125 1 3.537717112605074 10.533874578245769 35.155401757518206 0 0 -1
525 1 3.5177306549895806 10.57340320516853 3.53867994497366 0 0 0
86 1 5.278252908230444 8.821315735426305 35.174209194054974 0 0 -1
486 1 5.282449003329862 8.788497463152211 3.558172485064444 0 0 0
127 1 5.30432781616725 10.573402562793657 1.7737117680595387 0 0 0
92 1 6.988826284365269 8.824785721793853 1.791510492789099 0 0 0
129 1 7.032892630228323 10.551793294412533 35.16250356168544 0 0 -1
529 1 7.041953679543656 10.528440340858435 3.5530377246721163 0 0 0
90 1 8.822428970594604 8.770969406730911 0.03227165227957869 0 0 0
490 1 8.81962699637999 8.818604523300683 3.530601659624098 0 0 0
131 1 8.761268681676773 10.574422889696885 1.7385913641259594 0 0 0
96 1 10.616661571470978 8.793815273824395 1.775691236380077 0 0 0
133 1 10.579101074078773 10.571000372842414 0.021273118025134964 0 0 0
533 1 10.579031447082283 10.574890104160222 3.534921802635041 0 0 0
94 1 12.265366037768246 8.811723190203749 0.002544315226044831 0 0 0
494 1 12.355875382806916 8.787758259992206 3.530383193309758 0 0 0
135 1 12.344971653845349 10.548450678901647 1.779196698453271 0 0 0
100 1 14.075965445670517 8.802397921934759 1.7626192153959732 0 0 0
137 1 14.073049493451128 10.54649544962984 35.19333907591831 0 0 -1
537 1 14.046150667442978 10.572821027675035 3.474646887566365 0 0 0
98 1 15.832883362618064 8.84610672595947 35.20102877080438 0 0 -1
498 1 15.846241171123408 8.800822486976912 3.51018380513253 0 0 0
139 1 15.854319157138347 10.557950012342042 1.7421528501691512 0 0 0
102 1 19.321409467328376 8.829774526325641 35.19442267548564 0 0 -1
104 1 17.63634647741852 8.810216709070971 1.7290075129642892 0 0 0
502 1 19.362247855995026 8.77749375566281 3.4987273191581125 0 0 0
141 1 17.627550757765427 10.573093573015074 0.041529669905868954 0 0 0
143 1 19.36916431971112 10.540263937154728 1.7595409441574406 0 0 0
541 1 17.596130051430126 10.57799671168219 3.496457229925758 0 0 0
106 1 22.867694583193188 8.798955010311875 35.196864894315134 0 0 -1
108 1 21.08011356812051 8.791349327897358 1.7547091653713411 0 0 0
506 1 22.871856103857624 8.803290590967139 3.5313108246846547 0 0 0
145 1 21.093655845775544 10.551472636840776 35.19959956629551 0 0 -1
147 1 22.827692980564304 10.54932626840262 1.7434209478438343 0 0 0
545 1 21.071129886036804 10.611319171984144 3.4888933323716422 0 0 0
110 1 26.381385854620007 8.796180818479758 35.179179570402404 0 0 -1
112 1 24.64783274323759 8.808901093709222 1.7819847519418734 0 0 0
510 1 26.39901249666987 8.80944529931671 3.595415809375996 0 0 0
149 1 24.650786948008403 10.591485919569811 35.175433792912266 0 0 -1
151 1 26.425537203656 10.550554258264677 1.7209754796695325 0 0 0
549 1 24.644755815496993 10.572025807157683 3.5757911178204345 0 0 0
114 1 29.945478493114187 8.795589501762185 35.18147400317191 0 0 -1
116 1 28.16664566073399 8.75646152094623 1.7690674302751863 0 0 0
514 1 29.937387527147703 8.771826090348203 3.521469534698306 0 0 0
153 1 28.149141979280245 10.556409695730295 35.17640850989778 0 0 -1
155 1 29.91180399493212 10.542272149735359 1.7770971443271668 0 0 0
553 1 28.139772763845524 10.581141464865807 3.533537013708269 0 0 0
118 1 33.41851447116448 8.78951901332955 35.19197540124618 0 0 -1
120 1 31.61081969715613 8.777567932012492 1.7318726769251163 0 0 0
518 1 33.38638797831478 8.763584034197171 3.521063273065731 0 0 0
157 1 31.694543400243223 10.555675591064476 0.03695789595473661 0 0 0
159 1 33.48047664438468 10.521992408162067 1.7518006387482297 0 0 0
557 1 31.696423943752546 10.490753609077087 3.5189819868123426 0 0 0
122 1 1.7746560337989798 12.324579575240032 0.007141393587266228 0 0 0
124 1 35.140775340744035 12.317290556949091 1.7465575457026195 -1 0 0
522 1 1.7507858233497942 12.337786702470618 3.5307044490094452 0 0 0
161 1 35.13629186685947 14.121531496348647 0.05323659529502009 -1 0 0
163 1 1.7509044606276647 14.054032107074855 1.7495423251843691 0 0 0
561 1 35.15981398927877 14.033519440386803 3.5145130560033975 -1 0 0
128 1 3.5164915371492467 12.318537328100406 1.8002809682592622 0 0 0
165 1 3.5720935991793077 14.115635249323736 0.03383414732721088 0 0 0
565 1 3.4993696561107783 14.12755880602538 3.5095460776076934 0 0 0
126 1 5.252236979677856 12.32238552942523 35.174154841929024 0 0 -1
526 1 5.25369969047792 12.356324965170455 3.4334779310760366 0 0 0
167 1 5.295049605644626 14.052934261638669 1.7439550968017166 0 0 0
132 1 7.0628909613721245 12.342057069628721 1.734461644992824 0 0 0
169 1 7.017071307825511 14.07517911499434 0.03323211728797835 0 0 0
569 1 7.0183009699190855 14.126720646189682 3.552314470956214 0 0 0
130 1 8.779725946869744 12.312526165853404 0.07368114226475166 0 0 0
530 1 8.819876589256411 12.310821755355128 3.5581529964520424 0 0 0
171 1 8.801632167105321 14.079502174420822 1.7908729237344612 0 0 0
136 1 10.573090309146057 12.299903845872686 1.7880813314469113 0 0 0
173 1 10.635642445090834 14.080286977359192 35.1931849415429 0 0 -1
573 1 10.540552852269201 14.037015158852082 3.54949859111702 0 0 0
134 1 12.308733995889739 12.350920826162312 35.14850486958086 0 0 -1
534 1 12.299683222454386 12.307235298521492 3.5723782407510165 0 0 0
175 1 12.299045474404688 14.114478744283579 1.759434717090184 0 0 0
140 1 14.056725180979033 12.333659504173047 1.7598988329481378 0 0 0
177 1 14.068426719548995 14.026510439732569 35.19937587828989 0 0 -1
577 1 14.094005353056842 14.092717384124702 3.5199184336814717 0 0 0
138 1 15.814136527248396 12.337617137555307 35.174355741099596 0 0 -1
538 1 15.761170029037535 12.351352452596261 3.4900323137975042 0 0 0
179 1 15.823951057567022 14.02779846331143 1.7609910161107936 0 0 0
142 1 19.35065927755977 12.321557514508779 35.190674463270526 0 0 -1
144 1 17.592233524868714 12.319748178575866 1.7282862226414588 0 0 0
542 1 19.349538555035117 12.316622022685712 3.4844208501521083 0 0 0
181 1 17.638305674488116 14.077518984762484 35.192719295643336 0 0 -1
183 1 19.342809912209916 14.084273771394008 1.7920621653016764 0 0 0
581 1 17.592319301588965 14.054879330595258 3.505259492956213 0 0 0
146 1 22.91799181657866 12.330389082175271 35.166603348582626 0 0 -1
148 1 21.13346405159268 12.31682784606649 1.7478974254802704 0 0 0
546 1 22.871604112789694 12.310641318024846 3.5508044242450683 0 0 0
185 1 21.138271097738954 14.059692773020227 35.18943284302586 0 0 -1
187 1 22.893737265341393 14.059570575429545 1.7629889860202168 0 0 0
585 1 21.14006288446834 14.06270608141066 3.477930836940306 0 0 0
150 1 26.416260423798686 12.328413391503231 35.188090476535535 0 0 -1
152 1 24.611554615200443 12.349386175077571 1.8003995901280323 0 0 0
550 1 26.37681466495602 12.276414299484806 3.5158052069089067 0 0 0
189 1 24.633298237492358 14.079023166526335 35.16139274065201 0 0 -1
191 1 26.415120800455178 14.07810751364885 1.7319984191933318 0 0 0
589 1 24.634180891718625 14.120930075874714 3.494006880583268 0 0 0
154 1 29.92393954323637 12.307216897517337 35.19335145917528 0 0 -1
156 1 28.170223590457603 12.279366325397689 1.7499239898484011 0 0 0
554 1 29.901010702484925 12.248501637769083 3.542362427773718 0 0 0
193 1 28.151664485366716 14.072351955815435 35.17285830893939 0 0 -1
195 1 29.91903967696835 14.098808824761305 1.7343499806669154 0 0 0
593 1 28.138051999302856 14.084508061945982 3.500921251381692 0 0 0
158 1 33.419848476061084 12.327919930936238 35.1966004004509 0 0 -1
160 1 31.708742058202837 12.374297732955165 1.8154574258028187 0 0 0
558 1 33.459102421457175 12.275076641316282 3.5415114382165975 0 0 0
197 1 31.671500245443738 14.108933923599118 35.152968550745015 0 0 -1
199 1 33.37814740568863 14.082550622287565 1.7880138665852898 0 0 0
597 1 31.622128043808544 14.084288786494968 3.5057815958784144 0 0 0
162 1 1.771555213548589 15.866506968335854 35.19571890903997 0 0 -1
164 1 0.027032531900817485 15.836355262708494 1.7137231179022108 0 0 0
562 1 1.7482998882858232 15.897406342385016 3.5029910959838664 0 0 0
201 1 35.193064617828576 17.586877363595228 0.0006185295763728569 -1 0 0
202 1 1.7538585421752744 19.331255106167568 0.0012186599093942513 0 0 0
203 1 1.821074186521291 17.59695099936606 1.7368103720420782 0 0 0
204 1 35.1943261840082 19.37724888174483 1.7558166003785884 -1 0 0
601 1 0.02172149335819838 17.647993788452933 3.541963185047328 0 0 0
602 1 1.802748019728081 19.351586044129924 3.5175011085671897 0 0 0
168 1 3.5408211936255674 15.82390045459053 1.7521492637117384 0 0 0
205 1 3.5672333248672956 17.623125249897576 0.02286531688345121 0 0 0
208 1 3.5021717857225867 19.3622619042584 1.7337310563014665 0 0 0
605 1 3.5048917098107624 17.54818110230876 3.5731591522331665 0 0 0
166 1 5.298116137221454 15.81103078779639 35.148937970503276 0 0 -1
566 1 5.193252835025383 15.822750541256488 3.5272175441573914 0 0 0
206 1 5.280752115683328 19.379575171880134 35.16849633416079 0 0 -1
207 1 5.310159102851607 17.584322053012897 1.7543427497742818 0 0 0
606 1 5.281611543667277 19.33137831493125 3.4729666448636416 0 0 0
172 1 6.9852604784026004 15.847828830729583 1.7497385452909124 0 0 0
209 1 7.012934747982971 17.60208311827485 0.03851135989625592 0 0 0
212 1 7.032158591927243 19.363157235920532 1.7045552770469643 0 0 0
609 1 7.041141180096182 17.619346698391016 3.5179638630438888 0 0 0
170 1 8.826162584360306 15.817615882901212 0.08218249140565938 0 0 0
570 1 8.797156348341886 15.854473947114686 3.5032306392016874 0 0 0
210 1 8.820556261271113 19.363103452778194 -0.0012847862075912055 0 0 0
211 1 8.799670589513399 17.6384731153552 1.7385880232600732 0 0 0
610 1 8.793987490545858 19.35461605380815 3.535196247874979 0 0 0
176 1 10.533699947199986 15.87605805993441 1.762585794411341 0 0 0
213 1 10.578225603579979 17.597653709178182 0.03349030461116473 0 0 0
216 1 10.606521231141954 19.37323462174064 1.7364527007734982 0 0 0
613 1 10.545466635724768 17.59426808289447 3.5099303214495303 0 0 0
174 1 12.302235040034692 15.824478842986672 35.19883640026133 0 0 -1
574 1 12.331130823492455 15.827569291718065 3.506815400622029 0 0 0
214 1 12.27599909049167 19.360303934569096 0.028339774324261123 0 0 0
215 1 12.313021505514616 17.579602229097098 1.7311599511028912 0 0 0
614 1 12.297344120706983 19.372369303876297 3.50131644696016 0 0 0
180 1 14.07795148639215 15.821534039527169 1.7856735278514673 0 0 0
217 1 14.089468575787542 17.582143861478563 0.04470937832559851 0 0 0
220 1 14.058642710076324 19.316914975804263 1.765557935679799 0 0 0
617 1 14.123789128093486 17.577019290511757 3.4825053209121646 0 0 0
178 1 15.835286909347545 15.858372045163305 35.199564384061446 0 0 -1
578 1 15.872584075301654 15.812668015718812 3.4993059841383456 0 0 0
218 1 15.811914598938223 19.343706690298756 35.18389823658194 0 0 -1
219 1 15.881638914348718 17.574069880839147 1.7165758183855644 0 0 0
618 1 15.82297028749929 19.383591218752063 3.4852009718066266 0 0 0
182 1 19.288360145808785 15.827226287988893 35.19355496266992 0 0 -1
184 1 17.633312531878826 15.85766584420477 1.778004920807318 0 0 0
582 1 19.3579025919131 15.846775724945923 3.52805001059761 0 0 0
221 1 17.511865390798658 17.665380013430795 0.03659815491946304 0 0 0
222 1 19.374378531635934 19.342118661804765 0.006462101777327379 0 0 0
223 1 19.35100424230485 17.594124970783184 1.8053233985391477 0 0 0
224 1 17.553182681926447 19.32404135268473 1.778050860808131 0 0 0
621 1 17.603588620793957 17.586908693008933 3.519775356681305 0 0 0
622 1 19.36009605266422 19.37972409345664 3.468472605055728 0 0 0
186 1 22.87512871349906 15.883161929157458 35.152721644063384 0 0 -1
188 1 21.11413283804667 15.829569159843892 1.696040702887987 0 0 0
586 1 22.82816924660636 15.831931798649402 3.5169722696272276 0 0 0
225 1 21.081021792638822 17.660339961637575 0.015434056841782624 0 0 0
226 1 22.93029246527605 19.331664418739987 0.029764473735094926 0 0 0
227 1 22.924327746211148 17.60356801635902 1.778108923327005 0 0 0
228 1 21.09427054898758 19.410396177677683 1.7881007687361365 0 0 0
625 1 21.115960020783014 17.58789952843145 3.49890562178656 0 0 0
626 1 22.918257071927606 19.382392932766237 3.5418141222708934 0 0 0
190 1 26.462162379557412 15.808763613866832 35.17010434866609 0 0 -1
192 1 24.645057438949348 15.846776060794303 1.7794067722713973 0 0 0
590 1 26.42453682349691 15.813079177522004 3.4869252220676623 0 0 0
229 1 24.646607639543106 17.595873262265265 35.20198152118066 0 0 -1
230 1 26.400987184391465 19.386811280099565 35.197425885469954 0 0 -1
231 1 26.407688241767712 17.644294803548163 1.7606343873464183 0 0 0
232 1 24.662702255331798 19.356900516029672 1.8141114562233625 0 0 0
629 1 24.653427273395636 17.58869571690306 3.5261794070996735 0 0 0
630 1 26.376397400670115 19.357791539051366 3.5115646822713487 0 0 0
194 1 29.893933511347388 15.790388539897066 0.008506184216249628 0 0 0
196 1 28.16527356371527 15.824048168561832 1.7166058085670366 0 0 0
594 1 29.92155415802449 15.87174011934628 3.552214832596635 0 0 0
233 1 28.141969457236808 17.57716329237122 35.17186070256796 0 0 -1
234 1 29.917315396756365 19.40799116853406 35.194128541137225 0 0 -1
235 1 29.905157431301706 17.551169668548443 1.7622058884880787 0 0 0
236 1 28.173839210480615 19.386219378370708 1.7366080165825362 0 0 0
633 1 28.157368937975694 17.58958075264312 3.530557268721201 0 0 0
634 1 29.910738526622495 19.304749982166477 3.530202691469077 0 0 0
198 1 33.41233051137227 15.881338746317944 0.02365378175738786 0 0 0
200 1 31.71961039750323 15.822320560394058 1.7497000246422594 0 0 0
598 1 33.487562827422394 15.85353413890713 3.56100411113716 0 0 0
237 1 31.6575788017704 17.61631656466914 0.02931737117795013 0 0 0
238 1 33.4410009212129 19.38267538703702 35.18615246418631 0 0 -1
239 1 33.45195675708217 17.644499676866772 1.7900958908508033 0 0 0
240 1 31.69115821562836 19.324593617565913 1.7561020546054524 0 0 0
637 1 31.67590813878956 17.62559670681965 3.534187428279727 0 0 0
638 1 33.508650693678035 19.367939476308976 3.5770028958246347 0 0 0
241 1 35.19063670081058 21.142887601747635 35.18545789750391 -1 0 -1
242 1 1.7400079753111075 22.89112807801362 0.012542314144345486 0 0 0
243 1 1.7484952839481738 21.10950392141989 1.7643189230529894 0 0 0
244 1 0.011081741581772855 22.919281584384873 1.7618431163675017 0 0 0
641 1 35.19175875281025 21.154282843739974 3.491072560591219 -1 0 0
642 1 1.782557531065368 22.853982282793485 3.525262934606766 0 0 0
245 1 3.5075713385348233 21.126492287530816 0.023954306943774022 0 0 0
248 1 3.4811138742490253 22.891167742571085 1.7217065204911304 0 0 0
645 1 3.5722299308403356 21.104570943285516 3.496005811758755 0 0 0
246 1 5.245378080438718 22.850267954392983 35.190031748108915 0 0 -1
247 1 5.365585613428421 21.12385814867317 1.7530015582971 0 0 0
646 1 5.258595104662476 22.904542837880676 3.5515258990887757 0 0 0
249 1 7.022615695366566 21.104507658469018 0.043452839758116195 0 0 0
252 1 7.084275065354372 22.872586904686955 1.7468233140160534 0 0 0
649 1 7.040674651371526 21.09803025102188 3.528378881044652 0 0 0
250 1 8.81848990508199 22.91676777493002 35.201774313031535 0 0 -1
251 1 8.759092039577396 21.100756425702443 1.8033536795613083 0 0 0
650 1 8.81601114813697 22.90552926981122 3.5563321492285844 0 0 0
253 1 10.58595231607624 21.152469407576497 0.04059290365615341 0 0 0
256 1 10.550271035608185 22.939015414696495 1.8003796719307141 0 0 0
653 1 10.534769480714779 21.12109263146923 3.525576310312715 0 0 0
254 1 12.319597528977942 22.8918287029876 0.021779000140909877 0 0 0
255 1 12.301099838280152 21.091600986441225 1.7766946295660504 0 0 0
654 1 12.28638405468057 22.93347304638951 3.520560852219141 0 0 0
257 1 14.095259122633946 21.15799066977198 0.010632026153763248 0 0 0
260 1 14.051632816509812 22.926306298413735 1.7720799153184972 0 0 0
657 1 14.017316528007765 21.113975262775046 3.576723010849271 0 0 0
258 1 15.907224999072534 22.886283281363674 0.003075335411937478 0 0 0
259 1 15.83638107653041 21.1144628096 1.7734452425401899 0 0 0
658 1 15.85265465535958 22.836641680464616 3.552656721836646 0 0 0
261 1 17.606465501557018 21.117643878767925 35.199811321841274 0 0 -1
262 1 19.36215057527728 22.87884246113677 0.04707647250240681 0 0 0
263 1 19.34174022562386 21.158198773929534 1.7967224145416505 0 0 0
264 1 17.603963300835307 22.905685215350108 1.741522542969806 0 0 0
661 1 17.60031253796988 21.134935138845286 3.521956767030424 0 0 0
662 1 19.335029417933864 22.862175659363082 3.5261157940055963 0 0 0
265 1 21.131353284714518 21.114910555737687 0.006596655250399057 0 0 0
266 1 22.915236541019866 22.89329277242285 0.008061099846597567 0 0 0
267 1 22.88442272373617 21.11018630073521 1.7193469760066442 0 0 0
268 1 21.162549335088595 22.90616455643186 1.7334580950893272 0 0 0
665 1 21.089891725194367 21.091100363316063 3.4830464173351037 0 0 0
666 1 22.834245392619106 22.83341024040183 3.4926496244869356 0 0 0
269 1 24.601813357027453 21.107723707991568 0.024706661557483113 0 0 0
270 1 26.33909376098404 22.837939799582834 35.19162448492466 0 0 -1
271 1 26.41313541626554 21.098166420360695 1.763265187395906 0 0 0
272 1 24.618457467587692 22.93716286487462 1.7603440826749406 0 0 0
669 1 24.67256683379537 21.09261647149028 3.5660690783293854 0 0 0
670 1 26.408667529853464 22.90079002288016 3.5150585005303845 0 0 0
273 1 28.1479043199473 21.119675322914578 0.0008521879390994796 0 0 0
274 1 29.91352558227609 22.89996241778448 35.17267342515519 0 0 -1
275 1 29.959983639816375 21.158583529203177 1.710923953917792 0 0 0
276 1 28.196624716660615 22.89218274185776 1.7498105199465688 0 0 0
673 1 28.161403667255207 21.11515500024629 3.5013690965674744 0 0 0
674 1 29.911180421996132 22.881966559975975 3.567265852239444 0 0 0
277 1 31.672511294547718 21.112821724222275 35.15239833942515 0 0 -1
278 1 33.42578301334997 22.87634556498758 0.023435315889508892 0 0 0
279 1 33.45707589661856 21.127733449889508 1.7489663849359567 0 0 0
280 1 31.685365215349865 22.823402066586024 1.7826149214540155 0 0 0
677 1 31.63826331033424 21.087668345998857 3.5086261447295253 0 0 0
678 1 33.450373682469404 22.84562714103189 3.473006897016823 0 0 0
281 1 35.16396087951479 24.620162431957773 35.15311224289122 -1 0 -1
282 1 1.7140562817340355 26.354523247024154 0.06095611481672903 0 0 0
283 1 1.7403971881194256 24.700685256930267 1.7895407180030667 0 0 0
284 1 35.19467337402385 26.403104861055102 1.7384507066624126 -1 0 0
681 1 35.18925595401883 24.630220327344873 3.543850416950038 -1 0 0
682 1 1.754139838099569 26.40088654640641 3.5545518690922564 0 0 0
285 1 3.5103304569759057 24.60398711730703 0.01557868932428652 0 0 0
288 1 3.5025528507914534 26.408939244275228 1.7280320213442086 0 0 0
685 1 3.5346644657213573 24.61322189659895 3.5125210766492554 0 0 0
286 1 5.272542020500948 26.422651379551244 35.185716559590624 0 0 -1
287 1 5.238746428683329 24.67704936729666 1.7812407189606803 0 0 0
686 1 5.228392913588358 26.40355894034143 3.569203268985356 0 0 0
289 1 7.042288671286537 24.68220667477888 35.18312804692112 0 0 -1
292 1 7.0554467005444526 26.397358494344157 1.777455445415914 0 0 0
689 1 7.025008423072669 24.66286711397484 3.52953114497476 0 0 0
290 1 8.811298206837815 26.349838484326806 35.18622266788155 0 0 -1
291 1 8.808022599898111 24.66597429803826 1.7199060047202575 0 0 0
690 1 8.812311696563441 26.380501400563126 3.50864328216795 0 0 0
293 1 10.551915543852235 24.63089409574061 35.17334604915408 0 0 -1
296 1 10.554481643730421 26.344028352207236 1.8174375449760534 0 0 0
693 1 10.533645198272104 24.58135036493542 3.5593698114340646 0 0 0
294 1 12.30531389003449 26.385717455169598 35.187498737634265 0 0 -1
295 1 12.354227288299224 24.65143070714493 1.7569407421108476 0 0 0
694 1 12.313790371852038 26.398382734845026 3.504851640210102 0 0 0
297 1 14.057623576559862 24.606410248440444 35.17856517125277 0 0 -1
300 1 14.111648759271313 26.432153826930424 1.8304577517037683 0 0 0
697 1 14.041297168591504 24.69513833357028 3.5466794817245058 0 0 0
298 1 15.798695002586541 26.37706891741266 35.18005751011865 0 0 -1
299 1 15.902502876977092 24.61010998739405 1.7804452062237177 0 0 0
698 1 15.866401146598674 26.377201427553608 3.5157656556512595 0 0 0
301 1 17.599691019827947 24.68983246626346 35.19474392620337 0 0 -1
302 1 19.348372113344293 26.431903383182075 35.14704222346084 0 0 -1
303 1 19.369623626086184 24.652093233684784 1.7584046891412486 0 0 0
304 1 17.583399681418147 26.417451336682852 1.750783233125323 0 0 0
701 1 17.572832292371956 24.581439634819606 3.4943007335533474 0 0 0
702 1 19.369830649368595 26.363809769616964 3.5207784560023274 0 0 0
305 1 21.11639313995829 24.64434728520625 0.012666077160467425 0 0 0
306 1 22.941339131640458 26.388274248976703 35.16271695556096 0 0 -1
307 1 22.84483115257517 24.631472144321865 1.7946819358166526 0 0 0
308 1 21.163241371953966 26.39584698581346 1.72476845334196 0 0 0
705 1 21.128233704228496 24.601949414510692 3.507680873549742 0 0 0
706 1 22.89159012646434 26.369275494077883 3.4879351113010855 0 0 0
309 1 24.59274075114373 24.661165704642134 35.15821240361419 0 0 -1
310 1 26.385385637918343 26.441387376623695 35.178814290575275 0 0 -1
311 1 26.435439593292305 24.634486628214777 1.7402189103261703 0 0 0
312 1 24.637906976113605 26.42073161204268 1.7561541678993766 0 0 0
709 1 24.665851200537503 24.630424858972916 3.5496840590648806 0 0 0
710 1 26.401349174769102 26.42320339736788 3.486928323147847 0 0 0
313 1 28.17706438991298 24.666702851334687 0.008837284645105204 0 0 0
314 1 29.95226385104051 26.373269240997168 0.0051186180699428424 0 0 0
315 1 29.888309600326934 24.656671542670754 1.7788704494926197 0 0 0
316 1 28.155260157919205 26.37475524385306 1.786169084109201 0 0 0
713 1 28.14066114736016 24.64516199885596 3.524158281624273 0 0 0
714 1 29.92711655176324 26.425231885881523 3.4566265248058055 0 0 0
317 1 31.672430210261446 24.680809803350822 0.005426501178271472 0 0 0
318 1 33.45667929712231 26.403599519881357 35.16451557069714 0 0 -1
319 1 33.40074250605337 24.630186217818178 1.720579969939686 0 0 0
320 1 31.686759864120667 26.474332040194287 1.7228314849450743 0 0 0
717 1 31.658659095751023 24.601058508381115 3.483276015195634 0 0 0
718 1 33.44325661159019 26.397794224999164 3.4888260564386107 0 0 0
321 1 0.0046024973508110075 28.164557207992868 0.0038383141978048994 0 0 0
322 1 1.7937701691602628 29.872797645548392 35.14060588135567 0 0 -1
323 1 1.754690633482943 28.113873327572005 1.7903482141595588 0 0 0
324 1 0.023076236057340143 29.964738055360325 1.7896198508711973 0 0 0
721 1 35.191951166528504 28.201723975948997 3.5056812751441617 -1 0 0
722 1 1.7631934811677985 29.96649039829946 3.5456342584307423 0 0 0
325 1 3.526135324324442 28.137872279002593 0.0033940884797754958 0 0 0
328 1 3.548346841855407 29.941634164541227 1.7501131103374468 0 0 0
725 1 3.5513773051742312 28.123800140954284 3.5121998379866484 0 0 0
326 1 5.30466200221221 29.94574025876577 0.021791508071946956 0 0 0
327 1 5.302718173357101 28.221469007935465 1.742056825776677 0 0 0
726 1 5.28075128582262 29.888368428424545 3.5146231516742117 0 0 0
329 1 7.084507519972757 28.174448249356317 0.023818301245798305 0 0 0
332 1 7.044306151000596 29.84702674252126 1.7417420110586281 0 0 0
729 1 7.057754032565617 28.127734728172708 3.4719334741409367 0 0 0
330 1 8.775989842463991 29.887092924819196 0.03198758130454921 0 0 0
331 1 8.826292094715939 28.160219207329895 1.748463314512758 0 0 0
730 1 8.779372158986662 29.92827367607791 3.555574781173105 0 0 0
333 1 10.56150305350367 28.192886288763024 0.010252249862513038 0 0 0
336 1 10.525205164560816 29.88285452881062 1.7733982525012706 0 0 0
733 1 10.556393542575675 28.17224697050591 3.531180238592854 0 0 0
334 1 12.31712617719268 29.942226567629834 0.043336968040453755 0 0 0
335 1 12.38176887915641 28.173333045209233 1.7492733664182742 0 0 0
734 1 12.277857898828337 29.895710164973252 3.508646693270457 0 0 0
337 1 14.070233498959336 28.139937056164094 0.03487678710299415 0 0 0
340 1 14.06248929690132 29.942676216737752 1.772025592902383 0 0 0
737 1 14.103664715127312 28.128587318184877 3.5560359740325294 0 0 0
338 1 15.793015077507745 29.91519940470805 0.028413001995248623 0 0 0
339 1 15.836248137026121 28.145402270325672 1.7814356076582591 0 0 0
738 1 15.859382020364855 29.952873744380575 3.493220920569329 0 0 0
341 1 17.56131839660946 28.179966014762655 0.017152158954262316 0 0 0
342 1 19.35518083689204 29.960038928106194 35.15560252340282 0 0 -1
343 1 19.346529327535603 28.1815279861062 1.7339104048098903 0 0 0
344 1 17.631766182592294 29.90642522439345 1.7665886669621038 0 0 0
741 1 17.628240951045772 28.16213954418611 3.4737812884892683 0 0 0
742 1 19.34029415191371 29.939103791516562 3.533023121339312 0 0 0
345 1 21.118908042953183 28.179168620650945 35.15422847705453 0 0 -1
346 1 22.872938474470665 29.898456592299897 35.19221314423784 0 0 -1
347 1 22.832033469361306 28.11599234715392 1.7972230632405064 0 0 0
348 1 21.121011268416638 29.90349289223371 1.7418122130474012 0 0 0
745 1 21.14991905109484 28.155930384760687 3.4763492457603284 0 0 0
746 1 22.901485687084374 29.924715624845305 3.509488749475492 0 0 0
349 1 24.623978597445202 28.190282646888686 35.15778062017799 0 0 -1
350 1 26.44449017138919 29.960798430734776 -0.0008774318634472792 0 0 0
351 1 26.428334870458944 28.143718524426944 1.7858552464243713 0 0 0
352 1 24.664544518143725 29.93779635967827 1.7542717862135004 0 0 0
749 1 24.674142768012825 28.182233716315626 3.487821421810243 0 0 0
750 1 26.447334253174688 29.91728248632127 3.5065148773369295 0 0 0
353 1 28.17216151753833 28.145022144857545 0.015027326858878498 0 0 0
354 1 29.91964144178789 29.9098398852739 35.170414954846656 0 0 -1
355 1 29.944888660095415 28.197098341103892 1.748393652418314 0 0 0
356 1 28.18324241931711 29.922382726386047 1.7520584847723177 0 0 0
753 1 28.15865273153107 28.13913347956734 3.540724979347623 0 0 0
754 1 29.936251852869336 29.941903166675896 3.577564212608974 0 0 0
357 1 31.66772339731112 28.19660646819982 0.008900163181388846 0 0 0
358 1 33.46012974901959 29.88545909301379 0.014491788928237704 0 0 0
359 1 33.48506659899447 28.143555784494158 1.7155075275070564 0 0 0
360 1 31.68527268939961 29.9185459766559 1.6924205225873645 0 0 0
757 1 31.69677678133862 28.18122048795179 3.5117537400665717 0 0 0
758 1 33.43381224100501 29.92568777021946 3.473380515707741 0 0 0
361 1 35.1910275264781 31.68387046134721 35.180587768081 -1 0 -1
362 1 1.7584840998868208 33.460278636596506 35.143497168822584 0 0 -1
363 1 1.7405355817456345 31.696520460594325 1.7672828366967912 0 0 0
364 1 0.011007097036817076 33.426789037580924 1.7585490404911261 0 0 0
761 1 35.17036786593791 31.69449927681096 3.6081038242793335 -1 0 0
762 1 1.7698099241493013 33.51226617913623 3.537154570779675 0 0 0
365 1 3.545262050188929 31.6786130072191 0.04027718321425662 0 0 0
368 1 3.522111458354358 33.455631273845576 1.7503095849936183 0 0 0
765 1 3.533804163651432 31.66147461284452 3.5607379912985753 0 0 0
366 1 5.296328588173567 33.45457495876895 35.18923311720427 0 0 -1
367 1 5.321107178537284 31.675510349971088 1.7567176699202753 0 0 0
766 1 5.272396624461074 33.455420613679706 3.484477312183312 0 0 0
369 1 7.053407191970119 31.680498146219282 35.19152710037918 0 0 -1
372 1 7.017485029064488 33.48449427630994 1.777159675694331 0 0 0
769 1 7.048805188725131 31.654285502811433 3.5484968945756017 0 0 0
370 1 8.859909148844821 33.39203036230125 35.157585165831456 0 0 -1
371 1 8.821532915633691 31.67447162896176 1.7299488266836576 0 0 0
770 1 8.819208212947302 33.452102110640766 3.552709569792365 0 0 0
373 1 10.53018083947955 31.676043247401832 35.17326169912809 0 0 -1
376 1 10.559784425200753 33.50452027621739 1.7510075998435064 0 0 0
773 1 10.575028912410527 31.641613097452712 3.4986304894441744 0 0 0
374 1 12.333668428583085 33.41873270368007 0.009579228362819462 0 0 0
375 1 12.3080747776048 31.66273641210672 1.7545571993897913 0 0 0
774 1 12.2541948062729 33.454915916188064 3.4863402481656234 0 0 0
377 1 14.072828844022913 31.718156889669174 0.008595302862166844 0 0 0
380 1 14.103910008225935 33.46587823618648 1.7711524459323553 0 0 0
777 1 14.072887991138519 31.722128014291293 3.5179064368858155 0 0 0
378 1 15.861842842857396 33.42738966913565 0.02196129590187131 0 0 0
379 1 15.83551899429715 31.673781872016473 1.7594774001693207 0 0 0
778 1 15.886709976967738 33.42169426406423 3.5420673328591747 0 0 0
381 1 17.55543626512763 31.732993048347495 0.04302061026440632 0 0 0
382 1 19.363834549499085 33.45742861078542 35.19526791622176 0 0 -1
383 1 19.363965035419817 31.684831066872512 1.8151421025928505 0 0 0
384 1 17.602083570373036 33.45691115508626 1.7585211398515248 0 0 0
781 1 17.57768028486573 31.709674984061188 3.5467922537109815 0 0 0
782 1 19.35949174927075 33.49034458814336 3.544715247351462 0 0 0
385 1 21.10343550038863 31.68425446188524 0.00892529053597068 0 0 0
386 1 22.89231939944986 33.443243545294315 35.19182533513955 0 0 -1
387 1 22.85330023482429 31.64112323340131 1.747046483191289 0 0 0
388 1 21.09536010760767 33.413411672360645 1.7101502226123853 0 0 0
785 1 21.09807790165139 31.649126330334884 3.4783813352164623 0 0 0
786 1 22.842726751498418 33.43691448631541 3.502056451105064 0 0 0
389 1 24.618605091064037 31.69886475894157 0.02497909310540219 0 0 0
390 1 26.39764158338296 33.43760400458746 35.18009866779291 0 0 -1
391 1 26.383565960995206 31.678232804028088 1.7351430467512048 0 0 0
392 1 24.63990576732431 33.47580359697427 1.82066278194137 0 0 0
789 1 24.710645521022155 31.696532781960986 3.5329081078109112 0 0 0
790 1 26.42847275707167 33.393259894408644 3.516497762157459 0 0 0
393 1 28.20495173769387 31.658497770338855 0.03540816433650109 0 0 0
394 1 29.93820331053036 33.41827399076304 0.020379836741809463 0 0 0
395 1 29.96985797836985 31.683668127712632 1.7745517817356777 0 0 0
396 1 28.08159352351194 33.38877032683675 1.7165208002900243 0 0 0
793 1 28.15620458947442 31.731881021368437 3.5382533066975217 0 0 0
794 1 29.957643160651013 33.44434288024521 3.5286442852546482 0 0 0
397 1 31.641219254822907 31.70505634773472 35.16706547333377 0 0 -1
398 1 33.43759186707547 33.43568390648259 35.15755401214413 0 0 -1
399 1 33.4731701873643 31.681653007442947 1.7576848204958448 0 0 0
400 1 31.720940853878933 33.43817465532983 1.7728738059377653 0 0 0
797 1 31.70024834541134 31.68798588821945 3.502221874538291 0 0 0
798 1 33.43236076698411 33.45800117852778 3.4989216864675803 0 0 0
403 1 1.7555901410460806 35.18643826459274 5.269210369747244 0 -1 0
404 1 0.044498564847812394 1.7811954492093145 5.24357544391213 0 0 0
801 1 35.19757235798072 0.004360538960101613 7.013095047282633 -1 0 0
802 1 1.8038457332048112 1.7776312322493104 7.0100395284234915 0 0 0
443 1 1.7056122980842834 3.497850640349866 5.283853019044034 0 0 0
841 1 35.176595512611364 3.508782652345311 7.029019839465086 -1 0 0
408 1 3.530106690239746 1.7475334141043093 5.247070585288518 0 0 0
805 1 3.467934814612812 0.007874131455672607 7.038747963437251 0 0 0
845 1 3.511337683212702 3.5418203485389506 7.016063539304969 0 0 0
407 1 5.280229687343747 0.024519708959206778 5.293976506327556 0 0 0
806 1 5.325869705760959 1.721701632995771 7.054754677763086 0 0 0
447 1 5.288731706674176 3.522830314023455 5.293810820312686 0 0 0
412 1 7.048087624918577 1.8058888692295203 5.252470506954706 0 0 0
809 1 7.0640676592442615 35.152992960360365 7.000014695728835 0 -1 0
849 1 7.008841589282592 3.5259311809073415 7.072310901695033 0 0 0
411 1 8.810281298962717 0.02912514944201301 5.266119279145449 0 0 0
810 1 8.784256792586246 1.7315893040881831 7.036340122584367 0 0 0
451 1 8.817556115402441 3.5523119355343065 5.26940492767355 0 0 0
416 1 10.579103049750591 1.7939541681660385 5.285088076934049 0 0 0
813 1 10.536132073634978 35.2013853979899 6.983052010405005 0 -1 0
853 1 10.567829602136163 3.513690784208953 7.0707899367576035 0 0 0
415 1 12.3161890655049 35.155219935374284 5.301426526150094 0 -1 0
814 1 12.280448706507999 1.7410281476698397 7.001312170041182 0 0 0
455 1 12.322771657801834 3.5353837826305776 5.283414258537915 0 0 0
420 1 14.05482437488333 1.769671364991248 5.305571633657269 0 0 0
817 1 14.083682489696807 0.028984435503683428 7.0488995347837395 0 0 0
857 1 14.039999144197782 3.540545319958537 7.029116160702148 0 0 0
419 1 15.836668099125111 0.0153581470494797 5.294112526541624 0 0 0
818 1 15.816649134309836 1.7438018265585482 6.996279173343576 0 0 0
459 1 15.818171366178559 3.5287428425489527 5.280395030641487 0 0 0
423 1 19.395584605669516 35.18866370240055 5.274851361807664 0 -1 0
424 1 17.618168218604836 1.7788662650616163 5.257449254104645 0 0 0
821 1 17.576487139860998 -0.0016350814880972987 7.0250402270330055 0 0 0
822 1 19.382590457785827 1.8171479304145934 7.0359308135004355 0 0 0
463 1 19.339837870610985 3.5285059710209996 5.324984412534504 0 0 0
861 1 17.64853824101926 3.4524288958062264 7.016778454162692 0 0 0
427 1 22.85913897168897 35.19842837326152 5.27684756469126 0 -1 0
428 1 21.096058171671515 1.755139395762144 5.27205707795528 0 0 0
825 1 21.130602718344207 35.18912269687104 7.0134973941135925 0 -1 0
826 1 22.888748422007318 1.778893784130364 7.041498035527015 0 0 0
467 1 22.849140760033396 3.546329967907419 5.305730451651086 0 0 0
865 1 21.11200637910376 3.491016427019903 7.051267165048613 0 0 0
431 1 26.40127750767964 35.15664408707953 5.242691325718166 0 -1 0
432 1 24.64746182136086 1.7846370132376705 5.301548538383646 0 0 0
829 1 24.640895979137323 0.03767793547740776 7.026844541026578 0 0 0
830 1 26.46935314896131 1.7257901266131703 6.990656612448143 0 0 0
471 1 26.407971973921747 3.5264447206809577 5.2962668591217845 0 0 0
869 1 24.556335938140418 3.5592822696907165 7.052219233598698 0 0 0
435 1 29.902628341796802 0.002338064257085336 5.239900220653527 0 0 0
436 1 28.13663690987475 1.7475879860766683 5.271596446048783 0 0 0
833 1 28.171796938743054 0.009698695518272082 7.012046836728476 0 0 0
834 1 29.891488785923844 1.7766810787722584 7.02588209803956 0 0 0
475 1 29.95064937402774 3.469448908935487 5.301650284593384 0 0 0
873 1 28.140318607263865 3.554679679539605 7.019099186607084 0 0 0
439 1 33.4440746235352 35.19570163562218 5.284530246964579 0 -1 0
440 1 31.64027928555812 1.774469604680654 5.309703948725529 0 0 0
837 1 31.644861187055366 0.01666808151996868 7.031735504494036 0 0 0
838 1 33.432124847650435 1.774400116329576 7.035251280380551 0 0 0
479 1 33.44324406843494 3.5104132045861554 5.298690065162675 0 0 0
877 1 31.685720528338823 3.4713330583011364 6.981112307315425 0 0 0
444 1 -0.0003312522058462027 5.3019934422230905 5.296148092301717 0 0 0
842 1 1.7741350494053403 5.252202936339065 6.9992529444673055 0 0 0
483 1 1.7507282308376044 7.000019162485472 5.274608764371222 0 0 0
881 1 0.00748876481891649 7.043811218958365 7.054182760131812 0 0 0
448 1 3.531765189726699 5.228392560078658 5.268262558571355 0 0 0
885 1 3.5501710504521107 7.067098982006383 7.059053331626646 0 0 0
846 1 5.245388915239103 5.2491759162730425 7.034433903867247 0 0 0
487 1 5.259501248831914 7.059964124390372 5.279224489572489 0 0 0
452 1 7.0988926333893065 5.315245761052331 5.366897911015697 0 0 0
889 1 7.062673749075432 7.010421845207858 7.020100869034638 0 0 0
850 1 8.815467015582414 5.302125466727318 7.045074000482234 0 0 0
491 1 8.798296668050314 7.05066016147463 5.2911677272760365 0 0 0
456 1 10.586871535374428 5.296224107716392 5.245312415489294 0 0 0
893 1 10.552596613846957 7.0625379470136 7.046139392397997 0 0 0
854 1 12.318505216556776 5.332250524151299 7.04517122958476 0 0 0
495 1 12.345480951713162 7.020747291020915 5.2354607315774 0 0 0
460 1 14.048325923390145 5.232410133984532 5.2929130179653905 0 0 0
897 1 14.02176887102144 7.063697653358294 7.030753096781318 0 0 0
858 1 15.833897406355453 5.283758839416878 7.021384968504886 0 0 0
499 1 15.844395290206016 7.025608999602401 5.236017663112645 0 0 0
464 1 17.632983695653937 5.286853473130504 5.282095837179904 0 0 0
862 1 19.384261179438532 5.2837368951080075 7.038451633846995 0 0 0
503 1 19.373989390522695 7.037933519708221 5.242859993650352 0 0 0
901 1 17.609272309141957 7.034725218314344 7.036221677882748 0 0 0
468 1 21.106331368386815 5.249738155032738 5.282627634670334 0 0 0
866 1 22.919150927534886 5.253400649995551 7.073833302364667 0 0 0
507 1 22.905849080729027 7.058546181994207 5.2673937160529 0 0 0
905 1 21.132340323602488 7.088629301194848 7.081131726728532 0 0 0
472 1 24.626670040839446 5.238101148226885 5.257740017348547 0 0 0
870 1 26.44598728226207 5.283739685169593 7.078889464051322 0 0 0
511 1 26.38392261718404 7.074792228615288 5.278879026489191 0 0 0
909 1 24.599822615717578 7.072055995721463 7.037495208837643 0 0 0
476 1 28.16811463071991 5.266505077189207 5.252894870981884 0 0 0
874 1 29.93478935159445 5.299643494892289 7.048882530790179 0 0 0
515 1 29.92353971896482 6.978045374258825 5.272292319536305 0 0 0
913 1 28.163128547450295 7.061099867904196 7.08977271823073 0 0 0
480 1 31.728505889204907 5.2511338052099905 5.294189309929269 0 0 0
878 1 33.390933525077706 5.3057422146149325 7.039956155521182 0 0 0
519 1 33.42766658016171 7.039010196487556 5.283109366044902 0 0 0
917 1 31.654914546574275 7.041804689017246 7.033166831714225 0 0 0
484 1 35.17230308347934 8.82376956404439 5.278186713947312 -1 0 0
882 1 1.7938913832434682 8.765378005077155 7.036771534403364 0 0 0
523 1 1.7613150639494337 10.566464843375314 5.3087264108240655 0 0 0
921 1 35.16017565482147 10.57476585306812 7.077896082661205 -1 0 0
488 1 3.516139238748512 8.831247087907746 5.1983844572054245 0 0 0
925 1 3.478920275881194 10.594509879179412 7.07151516463915 0 0 0
886 1 5.282552169520413 8.851395726219884 7.028106507316317 0 0 0
527 1 5.291089210048332 10.494986899213519 5.248468892301135 0 0 0
492 1 7.064426209004188 8.78085534393449 5.263449920771686 0 0 0
929 1 7.0146412236902185 10.593915194433979 7.060387166771803 0 0 0
890 1 8.842326742505541 8.79000570461676 7.081253923712312 0 0 0
531 1 8.890478474261533 10.583474723875185 5.260668424257711 0 0 0
496 1 10.536739693050915 8.762675817126564 5.2724869792462385 0 0 0
933 1 10.621083666926006 10.589406487585736 7.056618406827323 0 0 0
894 1 12.33107110744407 8.84509845166006 7.0349844291301915 0 0 0
535 1 12.335939073604155 10.536658341827636 5.2337540737890205 0 0 0
500 1 14.103722415262796 8.792943860963575 5.280292464856544 0 0 0
937 1 14.10345660235723 10.5393908445985 7.078480175161149 0 0 0
898 1 15.833671231557489 8.849758485988865 7.044022370659824 0 0 0
539 1 15.782534266603166 10.549972502830114 5.309534744233089 0 0 0
504 1 17.567651883576467 8.822493190099047 5.302904267702091 0 0 0
902 1 19.334507188892434 8.852512376832694 7.083197747806559 0 0 0
543 1 19.384054624453118 10.573562955263222 5.245192457568469 0 0 0
941 1 17.572192577714883 10.572671570804053 6.970820013757688 0 0 0
508 1 21.093265597102118 8.799887021634222 5.279495786475276 0 0 0
906 1 22.85682885212829 8.843491566912885 7.065498316784262 0 0 0
547 1 22.92816427237551 10.573242838215178 5.283420100006185 0 0 0
945 1 21.07983471499657 10.630910251420827 7.029291692935421 0 0 0
512 1 24.633130825148903 8.755130772749533 5.237383060476611 0 0 0
910 1 26.468100658358875 8.78229567091916 7.054475190630133 0 0 0
551 1 26.421376529018048 10.518645598386442 5.317396742059837 0 0 0
949 1 24.638586677219646 10.581250664885994 7.012573804773273 0 0 0
516 1 28.17396573263036 8.785967998174197 5.248513823906142 0 0 0
914 1 29.890266731339246 8.806872871503888 7.098599355465217 0 0 0
555 1 29.929620741839013 10.594999098155695 5.285724229866527 0 0 0
953 1 28.128496707624333 10.538340941209542 7.001371173346652 0 0 0
520 1 31.752390007369907 8.787168283609022 5.298146595297645 0 0 0
918 1 33.490995091448674 8.818862785299594 7.088708837151939 0 0 0
559 1 33.44219287733985 10.570590164840176 5.302149957201152 0 0 0
957 1 31.69199631555102 10.573301516036832 7.051951738894883 0 0 0
524 1 35.198796940589965 12.303464741595233 5.250777184444248 -1 0 0
922 1 1.7185825160874582 12.313953052763797 7.029773238738364 0 0 0
563 1 1.7597266785052756 14.048635895307179 5.342196606777966 0 0 0
961 1 35.15018594646954 14.055625872630717 7.005671492725397 -1 0 0
528 1 3.534846623036833 12.340140697902013 5.289388319875831 0 0 0
965 1 3.541067025385431 14.099416899295518 7.069329321623076 0 0 0
926 1 5.288702458132302 12.331033842525052 7.023566640846097 0 0 0
567 1 5.277533784486955 14.069835445598105 5.280352304420993 0 0 0
532 1 7.075056445425473 12.306467479914543 5.319191516215547 0 0 0
969 1 7.07614144915103 14.089773829545404 7.0396159454528515 0 0 0
930 1 8.749428624559709 12.269029811949972 7.024197091287253 0 0 0
571 1 8.790995473500402 14.102715531516013 5.2786460494241725 0 0 0
536 1 10.577461104885977 12.32420044972774 5.280159676423394 0 0 0
973 1 10.561024709123036 14.088387385248305 7.030366667534988 0 0 0
934 1 12.294432533947475 12.33349014111874 7.027257911336629 0 0 0
575 1 12.302777239664904 14.121338031716785 5.261603274681806 0 0 0
540 1 14.02619676246184 12.300445472068493 5.244313013678274 0 0 0
977 1 14.079090441209269 14.073663864742244 7.020908970090957 0 0 0
938 1 15.862298916206163 12.352581029457967 7.079789187200937 0 0 0
579 1 15.80071352473934 14.053956934269175 5.243147425629104 0 0 0
544 1 17.586836116220155 12.362713320612535 5.288901133416856 0 0 0
942 1 19.301738133653835 12.351576332969573 7.011663979367585 0 0 0
583 1 19.35917104242244 14.089836331015833 5.265675697080644 0 0 0
981 1 17.61699329351886 14.141497265717971 7.01459244914698 0 0 0
548 1 21.15713835080344 12.305110542175523 5.282502848281802 0 0 0
946 1 22.85601565409343 12.33834191506498 7.001347802568556 0 0 0
587 1 22.856695634183442 14.07383162766462 5.257130610286246 0 0 0
985 1 21.140452580123082 14.093089221686792 7.057042042289698 0 0 0
552 1 24.69393993499807 12.325129120965675 5.282263491688698 0 0 0
950 1 26.45800773124582 12.344882839113039 7.015298968647469 0 0 0
591 1 26.41512911228971 14.065702447521755 5.26633984784613 0 0 0
989 1 24.690434553216694 14.08701426626194 7.0289108143604455 0 0 0
556 1 28.12688625215124 12.327401331681308 5.291447227245692 0 0 0
954 1 29.910789817964254 12.303184356356025 7.042717281729691 0 0 0
595 1 29.883606195542836 14.025816367192752 5.228820122602965 0 0 0
993 1 28.173557744989786 14.13115414485187 7.033770307630952 0 0 0
560 1 31.680729895387653 12.296555751705208 5.275442761855601 0 0 0
958 1 33.430168990059215 12.292137301971165 7.000222060227732 0 0 0
599 1 33.476208208326625 14.101507024968598 5.305900401394095 0 0 0
997 1 31.63835452736227 14.086972420203482 7.008466830081229 0 0 0
564 1 35.17306400653856 15.860113418469087 5.2594409500359145 -1 0 0
962 1 1.7454178311655697 15.78498002581189 7.066852956728794 0 0 0
603 1 1.7659746020096712 17.607734113871363 5.248968927323091 0 0 0
604 1 0.0017436512646029985 19.40977506268125 5.243410442958969 0 0 0
1001 1 35.193771543019935 17.596925928983737 7.072362674367033 -1 0 0
1002 1 1.7890105504802183 19.343768082325766 7.037361927609551 0 0 0
568 1 3.4787393269380384 15.878843273856798 5.275811861919706 0 0 0
608 1 3.4788429192928234 19.35133252782773 5.331220567383114 0 0 0
1005 1 3.497783964113575 17.617577175559312 7.076213103922245 0 0 0
966 1 5.311761788237476 15.861530582756748 7.057969637596459 0 0 0
607 1 5.265275797223557 17.52976909343445 5.286092373847643 0 0 0
1006 1 5.235971990981943 19.34496925634241 7.040622188856468 0 0 0
572 1 7.047866623511672 15.900401736395187 5.245513393393482 0 0 0
612 1 7.051029857384057 19.305020479634006 5.293291372530865 0 0 0
1009 1 7.034210870301274 17.61421316568371 7.08759914956141 0 0 0
970 1 8.771697604293394 15.826750172796826 7.034224777630464 0 0 0
611 1 8.754010224429388 17.54771559922227 5.29482339163563 0 0 0
1010 1 8.851033881158406 19.323399358839048 7.056300946523856 0 0 0
576 1 10.53580689473135 15.81770124102717 5.238443976417286 0 0 0
616 1 10.575711898251896 19.36665514217013 5.263560979457031 0 0 0
1013 1 10.535713884317488 17.58748191226954 7.01798663714253 0 0 0
974 1 12.318145054077833 15.795368326513891 7.050370842514851 0 0 0
615 1 12.296591880920117 17.573250298665414 5.312733882642888 0 0 0
1014 1 12.27903337459953 19.353890586029006 7.02842438877364 0 0 0
580 1 14.089891203784301 15.822144637090584 5.27447500999362 0 0 0
620 1 14.10906242794477 19.36247821309304 5.272594811302863 0 0 0
1017 1 14.053187142794878 17.6392825121144 7.021449779304979 0 0 0
978 1 15.781873569892404 15.829612753439203 7.046849360844206 0 0 0
619 1 15.848013721901914 17.64398382329507 5.25014923935124 0 0 0
1018 1 15.794834801976144 19.347675679283583 7.0359171927653135 0 0 0
584 1 17.586987743964794 15.791665154767777 5.256945251933343 0 0 0
982 1 19.371077490484954 15.808596443219974 6.950079387672269 0 0 0
623 1 19.39930573507727 17.612948433685183 5.2265101320596035 0 0 0
624 1 17.584647204764448 19.393890626622614 5.322194210738103 0 0 0
1021 1 17.668234250656546 17.634056227979876 7.053439735451183 0 0 0
1022 1 19.344163429852454 19.346321756591816 7.071340561779457 0 0 0
588 1 21.085749528464767 15.761265920085712 5.2935388489462225 0 0 0
986 1 22.9071986422502 15.814391011111917 7.061978143237614 0 0 0
627 1 22.877014185251042 17.602264159787516 5.293031376717804 0 0 0
628 1 21.1118124184916 19.406329143533668 5.261757246994767 0 0 0
1025 1 21.10419451574345 17.599577962632775 7.0899890299714174 0 0 0
1026 1 22.865868708765053 19.332820048986086 7.029924769728583 0 0 0
592 1 24.650164724853987 15.851417839193333 5.294299363167506 0 0 0
990 1 26.44230332918702 15.807092728482372 6.990079330907447 0 0 0
631 1 26.41173001900887 17.620191156784383 5.299890288783172 0 0 0
632 1 24.605497573319337 19.3309548469002 5.274909492299743 0 0 0
1029 1 24.648420175961355 17.60630636490767 7.040118985262789 0 0 0
1030 1 26.452401206913656 19.370855838121294 7.049686596135066 0 0 0
596 1 28.14218123479623 15.782894474295661 5.274190930981044 0 0 0
994 1 29.936264506152966 15.863517536297751 7.090294217128281 0 0 0
635 1 29.8947502897209 17.60153275196064 5.2553146643016495 0 0 0
636 1 28.15236400943699 19.377067657208233 5.275000254622597 0 0 0
1033 1 28.191576597911627 17.562918939871643 7.015443698318102 0 0 0
1034 1 29.95682964692662 19.417502991833 7.0379197773258495 0 0 0
600 1 31.686416152748357 15.88690379208401 5.270196068629401 0 0 0
998 1 33.4636937614029 15.855753197939153 7.010074640588651 0 0 0
639 1 33.44104887139166 17.63642926064243 5.284144378569997 0 0 0
640 1 31.721426444451673 19.349435170161605 5.2838651536886685 0 0 0
1037 1 31.69259359417393 17.531083317804494 7.024462731557876 0 0 0
1038 1 33.45146258798604 19.369049468208075 7.065109498191585 0 0 0
643 1 1.728848860922004 21.146248022468445 5.286149731183636 0 0 0
644 1 35.18114855582116 22.926707627667756 5.257097782335841 -1 0 0
1041 1 0.002510885870840121 21.12202074526038 7.046257998422013 0 0 0
1042 1 1.7438052565296307 22.82078491474076 7.0201412715645075 0 0 0
648 1 3.4905893369208596 22.92922192206081 5.3101650519019055 0 0 0
1045 1 3.5156569012067043 21.142943668073652 7.073123721850253 0 0 0
647 1 5.281795462756372 21.08517013578406 5.226028648619306 0 0 0
1046 1 5.265698997761219 22.91232246032907 7.050032619076689 0 0 0
652 1 7.040958429259896 22.91718103097384 5.247832759642301 0 0 0
1049 1 7.109110814219937 21.116547327815667 7.082265274287221 0 0 0
651 1 8.848814190930794 21.120523905525378 5.231479810859359 0 0 0
1050 1 8.831779704644728 22.865643508356268 7.024439678371259 0 0 0
656 1 10.551861155729444 22.8568286974904 5.247137899643475 0 0 0
1053 1 10.549404216897377 21.11604738448412 7.0660927489630865 0 0 0
655 1 12.349943778352152 21.117570266968958 5.300473412115255 0 0 0
1054 1 12.313522785545212 22.861700004900857 7.052132696458924 0 0 0
660 1 14.112465408570772 22.874728675574083 5.254966411322389 0 0 0
1057 1 14.113931646829746 21.066818815854916 7.024014579806477 0 0 0
659 1 15.887109977853626 21.09502932469356 5.2967707339559125 0 0 0
1058 1 15.817136453220554 22.83080976087742 7.107123366753203 0 0 0
663 1 19.3279267668649 21.101872695999898 5.285984723167894 0 0 0
664 1 17.614882085803895 22.8482268037171 5.301366529506651 0 0 0
1061 1 17.575915797601176 21.12499607085187 7.058287256112322 0 0 0
1062 1 19.39503733043778 22.85466978229537 7.045167463273597 0 0 0
667 1 22.86062942678566 21.08893007750484 5.2413607991072775 0 0 0
668 1 21.092687364120675 22.900263693428226 5.261036428323746 0 0 0
1065 1 21.116725060261995 21.15480316695807 7.069623629305257 0 0 0
1066 1 22.89835505391859 22.890121892503462 7.06099992500286 0 0 0
671 1 26.368704651752108 21.066692193505872 5.2603061273864995 0 0 0
672 1 24.61937880382933 22.900825356523544 5.260341902085779 0 0 0
1069 1 24.615968796355855 21.097532138889953 7.064532175545637 0 0 0
1070 1 26.409458235482653 22.889704061698065 7.064072270180547 0 0 0
675 1 29.952521243417507 21.13979807677689 5.2914615902203606 0 0 0
676 1 28.20855700507578 22.861536080433275 5.290048324879441 0 0 0
1073 1 28.142084804834436 21.17153768352366 7.038156635737656 0 0 0
1074 1 29.884372172458157 22.870567338015352 7.032469686367258 0 0 0
679 1 33.482398461599075 21.127206167646154 5.256382959234453 0 0 0
680 1 31.6788111791457 22.850596249702633 5.336372552114103 0 0 0
1077 1 31.66090639061676 21.145342254918972 7.03389685649533 0 0 0
1078 1 33.492872963448896 22.89694397895878 7.03992731693031 0 0 0
683 1 1.7771466215434186 24.685461677085346 5.262032329157577 0 0 0
684 1 35.17942133377279 26.41444425723792 5.259100230694344 -1 0 0
1081 1 0.022536882540020547 24.670800460730586 7.034632723327493 0 0 0
1082 1 1.7406821106575792 26.38354203964433 7.037367661013409 0 0 0
688 1 3.526653423897382 26.390684558351964 5.265022388374767 0 0 0
1085 1 3.507689637535386 24.572230218285167 7.052703386574651 0 0 0
687 1 5.275622008496032 24.622693478482265 5.291735028915059 0 0 0
1086 1 5.272270981514091 26.4049304672389 7.0373507816277545 0 0 0
692 1 7.050663966509487 26.399855342158112 5.2925417202315 0 0 0
1089 1 7.044291963474837 24.675115149995847 7.074717023395003 0 0 0
691 1 8.785064551154258 24.623111508974443 5.2755878391766835 0 0 0
1090 1 8.7990596458527 26.413064998440625 7.064626619285383 0 0 0
696 1 10.596583664763378 26.35642226755416 5.273676176818395 0 0 0
1093 1 10.563493891336941 24.636296905525292 7.050804584131609 0 0 0
695 1 12.345699471675216 24.617044688880963 5.3293078405923975 0 0 0
1094 1 12.370979940141181 26.40117362890086 7.07467518459462 0 0 0
700 1 14.105286280320309 26.382842879995035 5.269221445342827 0 0 0
1097 1 14.068166828092885 24.666648278633204 7.031711982339398 0 0 0
699 1 15.80879566211068 24.63915483985228 5.282311485012411 0 0 0
1098 1 15.861685234712114 26.45285963591875 7.070059312822476 0 0 0
703 1 19.324041126884698 24.619726333712926 5.269075005641167 0 0 0
704 1 17.57043635744332 26.43045663699284 5.2324324338682775 0 0 0
1101 1 17.565494815778663 24.66430030158185 7.009209353083402 0 0 0
1102 1 19.33655747534659 26.335866639664772 7.060331577156295 0 0 0
707 1 22.87689519411416 24.590739698063096 5.301911359803935 0 0 0
708 1 21.174574952070195 26.382934053881257 5.260998395191913 0 0 0
1105 1 21.09805335460625 24.654817024092253 7.014613856729296 0 0 0
1106 1 22.86699192701866 26.38990577985113 7.059015076695303 0 0 0
711 1 26.43045553822276 24.73056735694239 5.309761323600916 0 0 0
712 1 24.677136347994214 26.442686473203715 5.268898609055667 0 0 0
1109 1 24.620561062033744 24.686273309175068 7.0542099534767 0 0 0
1110 1 26.40149422649585 26.44290062723312 7.039419114440518 0 0 0
715 1 29.93398297294579 24.645520592864205 5.313809415305382 0 0 0
716 1 28.178948753626877 26.40433062891795 5.3319681641614105 0 0 0
1113 1 28.216788017872528 24.646376806575816 7.04888859371029 0 0 0
1114 1 29.902717036446614 26.38133086807511 7.0202963790146065 0 0 0
719 1 33.453565808701185 24.64350196700314 5.292499543980888 0 0 0
720 1 31.693998108896782 26.41911365748806 5.318111760903038 0 0 0
1117 1 31.673557514390534 24.654186616376183 7.088291963900273 0 0 0
1118 1 33.47313358993378 26.424692246075026 7.053333766789174 0 0 0
723 1 1.7197769058122052 28.16050464819787 5.311285055434329 0 0 0
724 1 35.19525318331126 29.93753102300811 5.296363195253737 -1 0 0
1121 1 35.20155978583641 28.197695352319325 6.991373034457274 -1 0 0
1122 1 1.7293987064352985 29.949991149460104 6.9934553102886055 0 0 0
728 1 3.562385104053023 29.870068041495415 5.283623589851448 0 0 0
1125 1 3.4576678750094123 28.167761192603585 7.0395762893817615 0 0 0
727 1 5.313533400812174 28.205934445271588 5.290111321978318 0 0 0
1126 1 5.285994615341954 29.914796474393476 7.003158795054854 0 0 0
732 1 7.016504655837183 29.90655529364548 5.2816189105234645 0 0 0
1129 1 7.012410162242754 28.174467878208002 7.010469509164393 0 0 0
731 1 8.772805113438011 28.16748675077359 5.2910277698445825 0 0 0
1130 1 8.864921484600902 29.918984878291187 7.033884870803084 0 0 0
736 1 10.572379570802926 29.908390471684083 5.312907312252487 0 0 0
1133 1 10.572326544056608 28.119322461491368 7.043974303645113 0 0 0
735 1 12.345824459442296 28.133692305376375 5.226064686992902 0 0 0
1134 1 12.276561587894546 29.893174778780406 7.00839065228904 0 0 0
740 1 14.062994125284279 29.91642995655776 5.262117515207056 0 0 0
1137 1 14.112450925753738 28.173083009188243 7.055549426421272 0 0 0
739 1 15.823101811884474 28.107648447601797 5.260302428944998 0 0 0
1138 1 15.842363320931057 29.904137262592226 7.0138290445227645 0 0 0
743 1 19.346384997499232 28.159717294051728 5.266828736551117 0 0 0
744 1 17.54644516882292 29.93388414807492 5.256586578442993 0 0 0
1141 1 17.566343886728536 28.15106536632479 6.993722269646531 0 0 0
1142 1 19.380168680067484 29.913538305351764 7.031221910769103 0 0 0
747 1 22.89307346111054 28.168870833971067 5.281894420732036 0 0 0
748 1 21.116608152303574 29.94179930796042 5.272706668080744 0 0 0
1145 1 21.11136979437599 28.153431170849107 7.106376067612733 0 0 0
1146 1 22.89450009137465 29.919821203476506 7.026178982197249 0 0 0
751 1 26.36131883755121 28.138164430372008 5.247992166058517 0 0 0
752 1 24.674310696991704 29.930996684538997 5.269934385465637 0 0 0
1149 1 24.603942828995244 28.15388251626117 7.0419180466365 0 0 0
1150 1 26.423410150699134 29.88073318265395 7.02682024723984 0 0 0
755 1 29.884000792813904 28.1545427075212 5.338642774540411 0 0 0
756 1 28.154864060542625 29.932205507191515 5.2630996001902615 0 0 0
1153 1 28.125276772779827 28.176915155627356 7.012056719100915 0 0 0
1154 1 29.935862862759716 29.923733887475084 7.01124807690022 0 0 0
759 1 33.406629171257805 28.168700680888016 5.361554211848441 0 0 0
760 1 31.67680738484905 29.89341447169557 5.294042974382486 0 0 0
1157 1 31.610395929534604 28.121434446985063 7.034341343261457 0 0 0
1158 1 33.42301348240491 29.91141781309023 7.015201729433348 0 0 0
763 1 1.7915083192012027 31.66613245914133 5.276749152942874 0 0 0
764 1 0.027529045569420294 33.41034255909982 5.252736843719901 0 0 0
1161 1 35.19072698450615 31.6706336977718 7.037449407819564 -1 0 0
1162 1 1.7749875183964856 33.49405296875553 6.991062055169753 0 0 0
768 1 3.4855941446454404 33.38018554072981 5.234792409463457 0 0 0
1165 1 3.4811085468201166 31.69056506701151 7.016495966368499 0 0 0
767 1 5.276648136455656 31.718296172731467 5.289319866091963 0 0 0
1166 1 5.2648724385991565 33.43904430475472 6.990033017012425 0 0 0
772 1 7.0405009783902575 33.46255737764896 5.240278165509207 0 0 0
1169 1 7.02693639664073 31.675556622271714 7.000546233168854 0 0 0
771 1 8.855645001466401 31.698357203541146 5.263479494029716 0 0 0
1170 1 8.798039548071179 33.416544787591356 6.98164274423886 0 0 0
776 1 10.540358536826645 33.4356688282765 5.323082007895794 0 0 0
1173 1 10.53967291461602 31.68829706121749 7.037754397192444 0 0 0
775 1 12.370621271476585 31.68838343000338 5.298642572850073 0 0 0
1174 1 12.32048028001225 33.4453287321422 7.064800521114443 0 0 0
780 1 14.070903961718308 33.45012714541264 5.340173282793783 0 0 0
1177 1 14.064989187402169 31.64830002102611 6.994124856789618 0 0 0
779 1 15.851937630505756 31.663451401342282 5.245139633285545 0 0 0
1178 1 15.831030815943514 33.381749932306576 7.055635818774328 0 0 0
783 1 19.282162531872974 31.706367100504668 5.294990861159772 0 0 0
784 1 17.590955918933197 33.444059991094036 5.308974781550551 0 0 0
1181 1 17.59124956195932 31.675779163911173 7.016148629226996 0 0 0
1182 1 19.41518864540726 33.43400751364868 7.060987568949617 0 0 0
787 1 22.88476028159475 31.671686672468418 5.315494011434604 0 0 0
788 1 21.188400765477173 33.44114192072697 5.276288213748518 0 0 0
1185 1 21.136396001367395 31.61875236513663 7.003244158615002 0 0 0
1186 1 22.909560473377688 33.46875000642797 6.95872855483068 0 0 0
791 1 26.430907712007503 31.70161911621086 5.3241616127208164 0 0 0
792 1 24.620333069276487 33.46640248363258 5.2639488733434145 0 0 0
1189 1 24.662160912270192 31.664366094037124 7.052685084931014 0 0 0
1190 1 26.391520614030657 33.55101570572445 7.052935169036509 0 0 0
795 1 29.916708340407734 31.702245610070282 5.249038875982713 0 0 0
796 1 28.131575685596268 33.36140201591568 5.221412891695948 0 0 0
1193 1 28.19206527997474 31.703270664509745 7.047867668810312 0 0 0
1194 1 29.96138268950315 33.4719809169891 7.029069404328132 0 0 0
799 1 33.42079290886666 31.708189916314666 5.285516023937559 0 0 0
800 1 31.639268863558627 33.42917687388901 5.254040468580616 0 0 0
1197 1 31.680644036672437 31.657368981830484 7.029445628515284 0 0 0
1198 1 33.46959757046946 33.45841931744404 7.042684947062328 0 0 0
803 1 1.7860099787336023 35.171323547125944 8.811336130571709 0 -1 0
804 1 0.0013993745790512068 1.7451096006446234 8.800143217299185 0 0 0
1201 1 0.05381407545248963 35.16787126965512 10.566720239480874 0 -1 0
1202 1 1.7041108529540832 1.744238864331257 10.573222909645828 0 0 0
843 1 1.7605149901432051 3.524473670784496 8.805004999148244 0 0 0
1241 1 0.036697927482881594 3.4757872011308835 10.509576728216237 0 0 0
808 1 3.4945021968482717 1.7628313685116708 8.810853427580652 0 0 0
1205 1 3.5332830410839895 35.19494242682342 10.546647220701736 0 -1 0
1245 1 3.5573898030720863 3.5268239906311685 10.541997700797209 0 0 0
807 1 5.317319282514402 35.15858473936667 8.813164430542336 0 -1 0
1206 1 5.238160373223438 1.7439891996321402 10.565530604673286 0 0 0
847 1 5.299253957200268 3.5042707305598246 8.80720514128362 0 0 0
812 1 7.03004347664059 1.7352088272164985 8.773205008733065 0 0 0
1209 1 7.013217008654875 35.18629907578718 10.579776902333839 0 -1 0
1249 1 7.0298079254558505 3.5205389963601093 10.545574935231741 0 0 0
811 1 8.839893290100798 35.158957458460726 8.818917435947826 0 -1 0
1210 1 8.767816806042125 1.7916554377792802 10.556254972428407 0 0 0
851 1 8.81882029386815 3.466318778076453 8.77713202513818 0 0 0
816 1 10.567885585831444 1.7683315362806402 8.75935299335678 0 0 0
1213 1 10.562297714261149 35.16102557866846 10.557366187567544 0 -1 0
1253 1 10.611467567811163 3.480131252463973 10.554923509958439 0 0 0
815 1 12.31528451915537 35.1718208410581 8.775718751016722 0 -1 0
1214 1 12.294555588494946 1.738537230116961 10.581542735556061 0 0 0
855 1 12.284028243874591 3.4841541361619655 8.817580404278917 0 0 0
820 1 14.060479622660266 1.7320423572232406 8.801437121418958 0 0 0
1217 1 14.064466528876567 35.15550205521873 10.542633312365558 0 -1 0
1257 1 14.081722875191742 3.5781604444255093 10.584794382449916 0 0 0
819 1 15.842503174314109 0.020587939900454273 8.794017637680211 0 0 0
1218 1 15.886475629502183 1.7863012676464576 10.516513809937644 0 0 0
859 1 15.841924761105291 3.5710350228347583 8.75084779638852 0 0 0
823 1 19.3777507898649 35.20122378876583 8.807331387315505 0 -1 0
824 1 17.62575830023639 1.771276176268715 8.831785616082277 0 0 0
1221 1 17.59910011463418 0.012272214955119196 10.576710995024285 0 0 0
1222 1 19.326070906505837 1.7685137843224776 10.563899883133285 0 0 0
863 1 19.330082002299175 3.489389351660176 8.783796914878536 0 0 0
1261 1 17.60643199159753 3.5343310042216514 10.536708777709807 0 0 0
827 1 22.882743009888145 0.010665618898700898 8.772492227564209 0 0 0
828 1 21.071187190322412 1.8130779790999272 8.807184264181975 0 0 0
1225 1 21.1289119731426 35.17770701055912 10.597506303285357 0 -1 0
1226 1 22.902363623707778 1.7757375334063983 10.517802852738692 0 0 0
867 1 22.905618350460827 3.447684941334614 8.806188235607904 0 0 0
1265 1 21.155535543629615 3.53751596228254 10.516872238700811 0 0 0
831 1 26.379202918865083 -0.0003245696525694577 8.826403274402312 0 0 0
832 1 24.634439914960957 1.7514193724004707 8.819820230668336 0 0 0
1229 1 24.674364796836745 0.023771708147636735 10.579813422163744 0 0 0
1230 1 26.394226231258457 1.759687060913374 10.56746592640622 0 0 0
871 1 26.40230164574607 3.5275045773196956 8.720738021406408 0 0 0
1269 1 24.607522944674066 3.5246209532949067 10.60122929778838 0 0 0
835 1 29.93407644736092 0.0009958551704688178 8.796832418893288 0 0 0
836 1 28.15108209671981 1.7306360803110308 8.790491096552117 0 0 0
1233 1 28.13292547911542 35.180882542490615 10.5848567571181 0 -1 0
1234 1 29.916022669760103 1.7181398369822312 10.579015293088123 0 0 0
875 1 29.902583960750537 3.5215286488441917 8.788349305219416 0 0 0
1273 1 28.187596273128733 3.5256887632070626 10.56253684517995 0 0 0
839 1 33.470641379564334 0.04492401656975227 8.845723551689417 0 0 0
840 1 31.611874564669417 1.7575990232127432 8.847587641357265 0 0 0
1237 1 31.690174702204427 35.17212243177187 10.56705276361554 0 -1 0
1238 1 33.44798820851576 1.784361035902788 10.563791752172534 0 0 0
879 1 33.42910957523046 3.484273883061823 8.789303653281323 0 0 0
1277 1 31.64351592528594 3.474061262050581 10.55321225025978 0 0 0
844 1 0.010386829764408264 5.2665018096049 8.761480493652238 0 0 0
1242 1 1.7675788397928742 5.262615988854794 10.52318367082555 0 0 0
883 1 1.7717570411475023 7.090734997448346 8.818027249279531 0 0 0
1281 1 35.15953074212792 6.997603070608182 10.536824410928956 -1 0 0
848 1 3.570456528560671 5.260333592341343 8.831589061043141 0 0 0
1285 1 3.564634430204996 7.111418034146786 10.594016901506949 0 0 0
1246 1 5.240212219854288 5.298537422757556 10.579295865683413 0 0 0
887 1 5.256278412981712 7.007673485868229 8.777025826414157 0 0 0
852 1 7.040737192558527 5.238776608632097 8.820535453830288 0 0 0
1289 1 7.069905475253174 7.031917991711368 10.568811353267122 0 0 0
1250 1 8.822250998248188 5.262660495758636 10.54731677856515 0 0 0
891 1 8.818238392714237 7.045296365349929 8.791714281642575 0 0 0
856 1 10.576179871521116 5.265645158005941 8.83492545582751 0 0 0
1293 1 10.600117915748436 7.0462690739325335 10.504309839632656 0 0 0
1254 1 12.310471181576686 5.285128044915248 10.559154659085502 0 0 0
895 1 12.278305593990982 7.033483619555235 8.814935111834169 0 0 0
860 1 14.094841841651393 5.279397610000583 8.786322992081647 0 0 0
1297 1 14.073786444016482 7.004869869712729 10.549968132757057 0 0 0
1258 1 15.852447377457322 5.294638130191367 10.567012996118969 0 0 0
899 1 15.857431647306383 7.0257554624154706 8.83776057078524 0 0 0
864 1 17.55126105507675 5.248549442813106 8.797527042689309 0 0 0
1262 1 19.414436963859288 5.245481491660643 10.566964631747194 0 0 0
903 1 19.388563454033036 7.096375295027539 8.780978938260612 0 0 0
1301 1 17.625117299846465 7.0866848153093835 10.563912333742682 0 0 0
868 1 21.10777441289225 5.274724603284229 8.799389626562824 0 0 0
1266 1 22.839286325337085 5.251301108639426 10.586519821409542 0 0 0
907 1 22.886203704695898 7.07015408451015 8.831085861274113 0 0 0
1305 1 21.167993278659893 7.057528463925254 10.617599242288732 0 0 0
872 1 24.671770297456927 5.298117437872737 8.819572365131721 0 0 0
1270 1 26.356922249262958 5.263003004835318 10.555205259254674 0 0 0
911 1 26.384885892381195 6.98471696647242 8.801571520003254 0 0 0
1309 1 24.633411941142104 7.120991960094635 10.572948508186377 0 0 0
876 1 28.117486869402065 5.21473078240686 8.81751163907615 0 0 0
1274 1 29.884547679324644 5.195654633029151 10.549914987200326 0 0 0
915 1 29.937956351741732 6.990880598639183 8.782767660844755 0 0 0
1313 1 28.189368723027805 7.070058665420424 10.601835533388563 0 0 0
880 1 31.690900330191376 5.334861447134604 8.751999800479838 0 0 0
1278 1 33.47260090635571 5.293614842882714 10.550359090637377 0 0 0
919 1 33.44612590922861 7.034941915456063 8.833392260918135 0 0 0
1317 1 31.661881505377874 7.017134766725192 10.578891244203923 0 0 0
884 1 35.18994376958824 8.758391493781422 8.838381895951908 -1 0 0
1282 1 1.770831058576654 8.843238712188576 10.510579022349345 0 0 0
923 1 1.8013262729651485 10.613601689748872 8.817047154592657 0 0 0
1321 1 35.195843510967606 10.537783598876466 10.48652175382167 -1 0 0
888 1 3.5076216495066785 8.82244771697714 8.827947637057248 0 0 0
1325 1 3.526005349588474 10.576802742615264 10.575353458082958 0 0 0
1286 1 5.309199431766996 8.804014521699187 10.579713863714476 0 0 0
927 1 5.246470711727144 10.5556536685268 8.769938454261032 0 0 0
892 1 7.059519133305405 8.802406448223593 8.762773862386398 0 0 0
1329 1 7.0378078322215085 10.555654314471361 10.545851252270586 0 0 0
1290 1 8.757824429453215 8.857140149413963 10.56190657425312 0 0 0
931 1 8.756667587847147 10.591549937698662 8.805689157496747 0 0 0
896 1 10.566088213556213 8.799818254623437 8.749308779221835 0 0 0
1333 1 10.533230628526962 10.54798161188374 10.561375435696998 0 0 0
1294 1 12.283243153873956 8.816085213292968 10.52624467608351 0 0 0
935 1 12.31667023111546 10.5394125953499 8.71528960245136 0 0 0
900 1 14.046609893098706 8.808752684729441 8.770886516147074 0 0 0
1337 1 14.127125662272142 10.570149270102814 10.55144532159165 0 0 0
1298 1 15.833967436911362 8.803381006699338 10.573583838882266 0 0 0
939 1 15.794562872282503 10.487728048335738 8.839316220171778 0 0 0
904 1 17.628699961219336 8.78591414315552 8.82960704298135 0 0 0
1302 1 19.415304000266346 8.770091675098211 10.59562532095761 0 0 0
943 1 19.37961762161202 10.55664992496239 8.782687138475957 0 0 0
1341 1 17.62991789842595 10.546884194719743 10.59613351271019 0 0 0
908 1 21.10628846820935 8.822246965861288 8.798237045668298 0 0 0
1306 1 22.83324499753081 8.736370068617067 10.550086924345342 0 0 0
947 1 22.86314524710589 10.588993631116297 8.79269763714449 0 0 0
1345 1 21.154048810508485 10.615011571926273 10.57886657700951 0 0 0
912 1 24.617389703189065 8.80661940809322 8.828590081231637 0 0 0
1310 1 26.38900966898396 8.798627181469728 10.546947084239187 0 0 0
951 1 26.410898721058736 10.5747613379622 8.786057218390551 0 0 0
1349 1 24.63831627608095 10.561671039820496 10.502635132316488 0 0 0
916 1 28.190259282889908 8.752095025755926 8.746735981821649 0 0 0
1314 1 29.904308983622894 8.8136123258717 10.560818445258064 0 0 0
955 1 29.8911813631346 10.586941585372783 8.816169196227401 0 0 0
1353 1 28.15857330423582 10.615583589772124 10.603867613578743 0 0 0
920 1 31.666415698888656 8.827930125231916 8.807866505165753 0 0 0
1318 1 33.41728110879314 8.782265577230627 10.563819727463438 0 0 0
959 1 33.462574448587894 10.569778997066013 8.826009147344507 0 0 0
1357 1 31.689761928025632 10.576197161487672 10.5079572236847 0 0 0
924 1 35.192826872557085 12.346989656861185 8.777074618676245 -1 0 0
1322 1 1.8118707978061974 12.356548133818958 10.544409295249226 0 0 0
963 1 1.8277067528552764 14.029335818251058 8.798221613166547 0 0 0
1361 1 0.07032038661710817 14.086002499411597 10.551923494101683 0 0 0
928 1 3.4639808380002033 12.272673470512867 8.797325263829052 0 0 0
1365 1 3.4677360264231276 14.057960096466287 10.53280034459253 0 0 0
1326 1 5.31047671095087 12.255666364753978 10.517142358517127 0 0 0
967 1 5.306657894264586 14.05368290667358 8.81088771225553 0 0 0
932 1 7.01247395872397 12.341664800982599 8.766838788344272 0 0 0
1369 1 7.031808030226968 14.085419936689576 10.622244439461774 0 0 0
1330 1 8.80870895471907 12.357592516129431 10.579726670777408 0 0 0
971 1 8.76352035421365 14.104436708996339 8.840797468600536 0 0 0
936 1 10.56924455087674 12.265723731551388 8.768987131098305 0 0 0
1373 1 10.524950431518983 14.074598671861228 10.580675901988217 0 0 0
1334 1 12.351244090928196 12.318621908557713 10.50445289191826 0 0 0
975 1 12.365820474084991 14.060603128537466 8.817242619999663 0 0 0
940 1 14.089168676418524 12.337336334891297 8.775006181614616 0 0 0
1377 1 14.090144883771083 14.103740994626563 10.601271459764313 0 0 0
1338 1 15.842842134604119 12.355652631059824 10.554744385972361 0 0 0
979 1 15.843249940329308 14.093168749756716 8.792337394062923 0 0 0
944 1 17.590118132469875 12.311900955918553 8.829102360482713 0 0 0
1342 1 19.302612086268283 12.319720725125809 10.567704765116861 0 0 0
983 1 19.377496390266202 14.076728836096326 8.835607476243773 0 0 0
1381 1 17.61854951526924 14.073870506158162 10.556265321173727 0 0 0
948 1 21.0811398211868 12.335301372559353 8.742753427185564 0 0 0
1346 1 22.85980157881754 12.314230082262522 10.579419508085017 0 0 0
987 1 22.817832224545946 14.0669735880282 8.85863966117738 0 0 0
1385 1 21.099481149391988 14.040119513838356 10.552787419530128 0 0 0
952 1 24.669983848780404 12.288013630717325 8.788761564232912 0 0 0
1350 1 26.44763393524558 12.338061413890797 10.556286593786911 0 0 0
991 1 26.39269577617886 14.032384015630388 8.791918047873095 0 0 0
1389 1 24.640227947714504 14.107599875811024 10.575223736411552 0 0 0
956 1 28.151528835044214 12.32626727697396 8.816983709776126 0 0 0
1354 1 30.010250882746423 12.320535620500989 10.571457542347861 0 0 0
995 1 29.903872912223612 14.090718710400921 8.783581413646397 0 0 0
1393 1 28.226796662337495 14.067310209315593 10.620238672051775 0 0 0
960 1 31.67183612557379 12.341969375553939 8.808692155303751 0 0 0
1358 1 33.44659153589491 12.302694506560126 10.580428234099214 0 0 0
999 1 33.45336138764141 14.116331018196792 8.753929724589835 0 0 0
1397 1 31.659289463796004 14.093923532728782 10.548976103808164 0 0 0
964 1 35.19505672465176 15.860446427061525 8.8024300979468 -1 0 0
1362 1 1.7373281070322426 15.85949831592274 10.532710485632157 0 0 0
1003 1 1.7838493145305263 17.609098442528502 8.78379817758624 0 0 0
1004 1 35.18580312878707 19.372988249477647 8.860281512950266 -1 0 0
1401 1 0.0018880647763481165 17.58844636932971 10.556115206796342 0 0 0
1402 1 1.78706727887291 19.407844752430456 10.520674176783045 0 0 0
968 1 3.5149200825600295 15.886231452183967 8.819910215527003 0 0 0
1008 1 3.5027446636183206 19.336960536875864 8.845059881096512 0 0 0
1405 1 3.5385422438733403 17.6230082019596 10.526715177405299 0 0 0
1366 1 5.255332441228147 15.775477923991861 10.529760422959455 0 0 0
1007 1 5.255206192486452 17.61099693316743 8.811071406901048 0 0 0
1406 1 5.282313615416588 19.356590267605345 10.560834988790303 0 0 0
972 1 7.01881016009453 15.81851006141588 8.757917061665793 0 0 0
1012 1 7.022987003273675 19.374379935188397 8.813445526868254 0 0 0
1409 1 7.07046362544171 17.599604024477912 10.56599140627566 0 0 0
1370 1 8.780075904533893 15.823600652694576 10.57405695296437 0 0 0
1011 1 8.799869124524259 17.562984466558 8.78704392925617 0 0 0
1410 1 8.808963629088822 19.34745977343915 10.589025897636116 0 0 0
976 1 10.571577573011218 15.855645185607788 8.775594022103125 0 0 0
1016 1 10.54933030699964 19.3430721058647 8.800598948215171 0 0 0
1413 1 10.603411592225529 17.58329210207386 10.58702448599271 0 0 0
1374 1 12.358281106641737 15.817000110403189 10.593123134068462 0 0 0
1015 1 12.310698106144423 17.619623887175923 8.803364846897821 0 0 0
1414 1 12.297602403562767 19.38458997805615 10.629382799095328 0 0 0
980 1 14.095573688966594 15.83593322928244 8.789180053452954 0 0 0
1020 1 14.100438808159703 19.323816271927363 8.750711444170813 0 0 0
1417 1 14.08403006624295 17.539626498946745 10.561461679728028 0 0 0
1378 1 15.829161881776512 15.885693424118411 10.578667381588843 0 0 0
1019 1 15.87963514097698 17.61660689352557 8.780011194027036 0 0 0
1418 1 15.83875035716229 19.375410122744785 10.569904234673405 0 0 0
984 1 17.62910525017242 15.811261719086842 8.794093092332531 0 0 0
1382 1 19.353890872323337 15.817063590279476 10.576378572225911 0 0 0
1023 1 19.385008543149613 17.579467404503614 8.826920484993291 0 0 0
1024 1 17.575178849221665 19.33170346481041 8.802216643906975 0 0 0
1421 1 17.56935169617876 17.581314642834418 10.569333109992124 0 0 0
1422 1 19.36127401712616 19.320509791997303 10.543940744729056 0 0 0
988 1 21.116285716332364 15.80171416872535 8.815257149133677 0 0 0
1386 1 22.882269668084373 15.816970806435174 10.59728012002573 0 0 0
1027 1 22.8842888100883 17.55883675745048 8.814337879244372 0 0 0
1028 1 21.19026208012194 19.32202033209039 8.762522402489044 0 0 0
1425 1 21.11892196788809 17.636581179410115 10.606400913660405 0 0 0
1426 1 22.885608862416028 19.347042779862647 10.545388021737697 0 0 0
992 1 24.64022039279286 15.809963814951132 8.80640450893904 0 0 0
1390 1 26.365964863599274 15.845410819284977 10.588980600711889 0 0 0
1031 1 26.405050421562937 17.55564124733385 8.803500106395555 0 0 0
1032 1 24.66693356453687 19.336991808867836 8.833186620211553 0 0 0
1429 1 24.635752163500335 17.572828812576464 10.579404165180232 0 0 0
1430 1 26.408272708806994 19.378947271026 10.590783110726285 0 0 0
996 1 28.16790712426609 15.806172188158435 8.821200505684581 0 0 0
1394 1 29.913873545487714 15.82255715462494 10.546560428438125 0 0 0
1035 1 29.919652704548355 17.59037553569457 8.732919887055603 0 0 0
1036 1 28.187870529146583 19.386605144205266 8.812321354332113 0 0 0
1433 1 28.133010078677106 17.579657428384596 10.547694463976974 0 0 0
1434 1 29.93415595857317 19.376113674416956 10.602851101623104 0 0 0
1000 1 31.67377710297351 15.848293023370715 8.82022526247149 0 0 0
1398 1 33.4739053974323 15.863007120262843 10.588329830254771 0 0 0
1039 1 33.427382061904254 17.608079202025365 8.794716928377856 0 0 0
1040 1 31.647453753216322 19.326687643278746 8.793556623276936 0 0 0
1437 1 31.670199097047966 17.598050589895262 10.532295455931054 0 0 0
1438 1 33.43861299519936 19.317352287024402 10.530227036882385 0 0 0
1043 1 1.7692973781717936 21.13523669408585 8.774559796381933 0 0 0
1044 1 35.190873946934836 22.89863326010136 8.760676042965818 -1 0 0
1441 1 0.05912918832693892 21.10451883852018 10.561937267587766 0 0 0
1442 1 1.7195693679406314 22.878055815497863 10.535342539864532 0 0 0
1048 1 3.5027334588467234 22.860567533773647 8.842345935610796 0 0 0
1445 1 3.5051988281067143 21.123211303973466 10.55717630186057 0 0 0
1047 1 5.3267808443734594 21.101107394823494 8.803876255306184 0 0 0
1446 1 5.306641994703938 22.859989142387125 10.56131349622181 0 0 0
1052 1 7.004047927199295 22.83947541811893 8.829458378083679 0 0 0
1449 1 7.059518591228606 21.13507888480488 10.567342688692733 0 0 0
1051 1 8.821823500024564 21.072068254302938 8.831911420706591 0 0 0
1450 1 8.835747078072787 22.790356430429004 10.560675245678711 0 0 0
1056 1 10.59303778081038 22.846695181151258 8.773827745028866 0 0 0
1453 1 10.583762431659203 21.08808035476257 10.47475292669808 0 0 0
1055 1 12.326233220413554 21.1181380906768 8.763812393050333 0 0 0
1454 1 12.337850068400359 22.893570643828767 10.61230747558832 0 0 0
1060 1 14.107358416324862 22.92057991927923 8.825748441391003 0 0 0
1457 1 14.047841058056802 21.158729851514064 10.550345366737497 0 0 0
1059 1 15.85983415974956 21.133693629932978 8.820846443625916 0 0 0
1458 1 15.861364014972208 22.895091344336365 10.52349095539496 0 0 0
1063 1 19.373653874601786 21.110728461228824 8.848779113704582 0 0 0
1064 1 17.587079100180297 22.86125046285681 8.824402854313131 0 0 0
1461 1 17.553992010556634 21.124597037256052 10.540242950377774 0 0 0
1462 1 19.382736290021278 22.881531720173765 10.539387736684484 0 0 0
1067 1 22.899086986703583 21.088643035338194 8.78079117912036 0 0 0
1068 1 21.14468471343981 22.895223647125103 8.792428142733849 0 0 0
1465 1 21.11254331186985 21.08276258569454 10.49353264229623 0 0 0
1466 1 22.879764064562046 22.89042126109107 10.57053010560981 0 0 0
1071 1 26.454562012989843 21.16783008290739 8.814211410737588 0 0 0
1072 1 24.64402705121506 22.907840484021186 8.81579546867988 0 0 0
1469 1 24.672469814118454 21.088131090449735 10.588115547479466 0 0 0
1470 1 26.382851906439164 22.87819916398327 10.558073180787595 0 0 0
1075 1 29.959478054198513 21.13876587399941 8.787710018629976 0 0 0
1076 1 28.16961213797637 22.873164968767096 8.847001946830092 0 0 0
1473 1 28.161776778038845 21.099358016190592 10.527680216572593 0 0 0
1474 1 29.932402112285914 22.862698510948675 10.566885837336972 0 0 0
1079 1 33.47199314141017 21.11779421856343 8.81358588505641 0 0 0
1080 1 31.74622472529348 22.842727832895214 8.746817878423263 0 0 0
1477 1 31.669035758965666 21.146468669972265 10.568091898070012 0 0 0
1478 1 33.397459641898884 22.868418920779146 10.548864396330048 0 0 0
1083 1 1.7763807806432523 24.662420335042466 8.74347964943001 0 0 0
1084 1 35.159729967293124 26.39019826158231 8.80685413513719 -1 0 0
1481 1 35.2003329600447 24.652204286589672 10.534185955854218 -1 0 0
1482 1 1.7326232148469416 26.428595638278228 10.609627970075419 0 0 0
1088 1 3.5139385769760327 26.402205053659692 8.796769750349725 0 0 0
1485 1 3.466580579627474 24.639814469809668 10.58084882326667 0 0 0
1087 1 5.235349232935622 24.697778605302908 8.802502260582534 0 0 0
1486 1 5.232469121948816 26.39532558644838 10.537966366822769 0 0 0
1092 1 7.028401875847161 26.41766967901393 8.813659560307 0 0 0
1489 1 7.069704272764383 24.630620832659982 10.605724717008028 0 0 0
1091 1 8.779773085162093 24.61463990495789 8.836278603032316 0 0 0
1490 1 8.826045853652737 26.420895536614744 10.525943833244234 0 0 0
1096 1 10.548158662346417 26.357767020563365 8.847092620778717 0 0 0
1493 1 10.620777502761284 24.633697709786702 10.578545884844859 0 0 0
1095 1 12.35686131800495 24.683019533533685 8.824423053326772 0 0 0
1494 1 12.340080547040403 26.417614166568832 10.539339690193199 0 0 0
1100 1 14.130233079379005 26.34380833965563 8.835147584988132 0 0 0
1497 1 14.068972791038538 24.65702903076944 10.561727362308769 0 0 0
1099 1 15.848329617166032 24.639433615222437 8.758204590607873 0 0 0
1498 1 15.850453552711999 26.388837262072187 10.515185283901697 0 0 0
1103 1 19.3438477057012 24.649124603183576 8.802051955600977 0 0 0
1104 1 17.59266069896147 26.38845848020801 8.816578193782927 0 0 0
1501 1 17.647513671321498 24.611016999971163 10.583164488835692 0 0 0
1502 1 19.3281376655698 26.391172374050665 10.561533862512329 0 0 0
1107 1 22.8781672172065 24.595265221868573 8.769351914927649 0 0 0
1108 1 21.117612624564046 26.39922283420558 8.805385240500339 0 0 0
1505 1 21.1198935518923 24.609304766756196 10.5959503223101 0 0 0
1506 1 22.879235847520402 26.352175972819893 10.537518270268 0 0 0
1111 1 26.36393296975566 24.653437519149957 8.792024538728507 0 0 0
1112 1 24.657838386331616 26.40875994196908 8.854159766558848 0 0 0
1509 1 24.603955596201516 24.624736763649874 10.544532372005632 0 0 0
1510 1 26.35585180740001 26.4181748085465 10.500951800869236 0 0 0
1115 1 29.8680310727441 24.664227622376643 8.790339957636554 0 0 0
1116 1 28.108517893372177 26.409333371294895 8.799883257081111 0 0 0
1513 1 28.155993998438085 24.66201876880922 10.531694314498761 0 0 0
1514 1 29.92674737163483 26.388314849346028 10.54382698876615 0 0 0
1119 1 33.46088536498766 24.65368389605426 8.801199559232831 0 0 0
1120 1 31.65510226881698 26.41704929620329 8.816511613459566 0 0 0
1517 1 31.714287235960278 24.64592904661879 10.590949579511141 0 0 0
1518 1 33.42851822413491 26.43654484393075 10.550819110389666 0 0 0
1123 1 1.7303926454032477 28.185041838609003 8.787196065612726 0 0 0
1124 1 0.06745389378845638 29.903578921029727 8.842437131922672 0 0 0
1521 1 0.02810774116944905 28.190109417579933 10.586166483062087 0 0 0
1522 1 1.7921203105233292 29.857657590063585 10.558926632537704 0 0 0
1128 1 3.505561911698895 29.937259387698155 8.794776334442115 0 0 0
1525 1 3.5029256636982162 28.191835140133787 10.590854107103254 0 0 0
1127 1 5.230130230502795 28.15362036150031 8.75911851802613 0 0 0
1526 1 5.280397275129105 29.888316237534546 10.574651942890661 0 0 0
1132 1 7.038462653038968 29.90775029573782 8.792502729848474 0 0 0
1529 1 7.0355228968787475 28.176625158594963 10.581456141120755 0 0 0
1131 1 8.749378871099763 28.15043304389094 8.791613558608129 0 0 0
1530 1 8.796946524226454 29.88002179464367 10.552233611290053 0 0 0
1136 1 10.595237570700071 29.898788502097062 8.868918701390312 0 0 0
1533 1 10.59604352275088 28.16283234959566 10.55246033031944 0 0 0
1135 1 12.342051596341635 28.168441622924874 8.798087311419158 0 0 0
1534 1 12.372836770056974 29.90276874497312 10.587444875388497 0 0 0
1140 1 14.078319402251438 29.962191589629317 8.8099791349698 0 0 0
1537 1 14.082652702476773 28.13296751896548 10.586441600561965 0 0 0
1139 1 15.821914605075008 28.198746588563385 8.80279250532008 0 0 0
1538 1 15.841238642820164 29.951154344227184 10.53521063038775 0 0 0
1143 1 19.404330964870557 28.209304358691767 8.79835069057598 0 0 0
1144 1 17.58210857058202 29.905840505402594 8.820485373624345 0 0 0
1541 1 17.569933567246313 28.17225897222782 10.540711416363905 0 0 0
1542 1 19.37434990185503 29.8961079146498 10.535451723939056 0 0 0
1147 1 22.880284538392758 28.131011878981617 8.774790217615354 0 0 0
1148 1 21.065184109865623 29.926279096887427 8.787803434903516 0 0 0
1545 1 21.168001521318825 28.152523037487878 10.584440492936926 0 0 0
1546 1 22.94246732684201 29.94723614276943 10.563397775614494 0 0 0
1151 1 26.379987165934782 28.145323616576274 8.767812785861192 0 0 0
1152 1 24.63677450265113 29.938713312299438 8.827623573100295 0 0 0
1549 1 24.615947267964906 28.187664310776366 10.581613676019165 0 0 0
1550 1 26.412704984289363 29.92176195202211 10.590603056748275 0 0 0
1155 1 29.872232670677857 28.142810522457506 8.801930610898822 0 0 0
1156 1 28.151126848316057 29.92981157330127 8.804920702996519 0 0 0
1553 1 28.193207461280362 28.15253972858476 10.513324010999739 0 0 0
1554 1 29.859702360017636 29.877427439076317 10.575218584302995 0 0 0
1159 1 33.41873017565104 28.139109996050877 8.785422419175239 0 0 0
1160 1 31.616668102915746 29.900699819926395 8.809356328346635 0 0 0
1557 1 31.74223958475394 28.15301261067443 10.60795789105017 0 0 0
1558 1 33.41583775792368 29.957637653181436 10.530651972110794 0 0 0
1163 1 1.7576592189744533 31.67373344385157 8.78145957933334 0 0 0
1164 1 35.18598468153239 33.456406450014946 8.795321367568341 -1 0 0
1561 1 35.17982476340639 31.689536768099124 10.4849998962221 -1 0 0
1562 1 1.747113820500918 33.42387633129878 10.509526099346395 0 0 0
1168 1 3.5320877537563145 33.40331351016567 8.775704264217136 0 0 0
1565 1 3.505078081086637 31.706728972188465 10.543607593942669 0 0 0
1167 1 5.262643120271487 31.678831176155168 8.789954017369594 0 0 0
1566 1 5.266566437015102 33.432071505607304 10.501567546244496 0 0 0
1172 1 7.043762957790953 33.434334856749324 8.805886250676707 0 0 0
1569 1 7.050203413711011 31.6662645065625 10.516694299005989 0 0 0
1171 1 8.79239603333828 31.703438779757928 8.812286896607553 0 0 0
1570 1 8.82197270439545 33.44869477217246 10.563299940896982 0 0 0
1176 1 10.565270127870287 33.44987103466456 8.859271101255299 0 0 0
1573 1 10.579325631046373 31.660204877189337 10.53118427754161 0 0 0
1175 1 12.29693877269892 31.684500109783848 8.774013382505347 0 0 0
1574 1 12.332507660578889 33.43058036671326 10.509315292187038 0 0 0
1180 1 14.040619171878754 33.45566978762575 8.762311895239229 0 0 0
1577 1 14.05758973079541 31.664629574840724 10.539741213468414 0 0 0
1179 1 15.834988207733117 31.68486141170006 8.835494420401227 0 0 0
1578 1 15.781084841139565 33.43978294746559 10.529757156230641 0 0 0
1183 1 19.327242429831824 31.687768807402943 8.808424359308765 0 0 0
1184 1 17.57783162643956 33.457340446831495 8.821269997755733 0 0 0
1581 1 17.63109494467143 31.68241580287824 10.590308096361023 0 0 0
1582 1 19.396566019782636 33.43787817136214 10.503418964830615 0 0 0
1187 1 22.873757136617332 31.61862503757334 8.826526269919933 0 0 0
1188 1 21.130515066219644 33.44476884344483 8.82098268132598 0 0 0
1585 1 21.098092293046403 31.65195349662109 10.525039765104504 0 0 0
1586 1 22.825329602812786 33.47605081607557 10.524585937613464 0 0 0
1191 1 26.46658650699556 31.683293017419903 8.794911446678757 0 0 0
1192 1 24.622059915681486 33.41038206314652 8.819235757836099 0 0 0
1589 1 24.6754110008774 31.69977914162824 10.520392183375288 0 0 0
1590 1 26.425132384681692 33.431039937536795 10.580994333140374 0 0 0
1195 1 29.948556574976276 31.692721993432 8.815197709891358 0 0 0
1196 1 28.123183758914582 33.42155015399765 8.804338763867927 0 0 0
1593 1 28.130057580669895 31.65299923404456 10.599065695517115 0 0 0
1594 1 29.94938392745941 33.445294834284816 10.52879489435069 0 0 0
1199 1 33.45092347360733 31.71626030758564 8.819749482540166 0 0 0
1200 1 31.71851411576539 33.419140370135096 8.80757050939457 0 0 0
1597 1 31.764893668726835 31.645557761727435 10.560283270141374 0 0 0
1598 1 33.431177252347375 33.44161483450489 10.54864143114105 0 0 0
1203 1 1.7706817022846266 0.022390129248292416 12.32458490791156 0 0 0
1204 1 0.05062171511145676 1.795193104467024 12.315587386300622 0 0 0
1601 1 35.186362567971344 0.030556251461059024 14.138253057735348 -1 0 0
1602 1 1.786524820242191 1.7865234972375728 14.101391831067437 0 0 0
1243 1 1.700527945657575 3.5005902728454594 12.382722494265394 0 0 0
1641 1 0.0022404348520451973 3.4992621219001014 14.046414477395189 0 0 0
1208 1 3.499985052644711 1.7310061218151165 12.335548418996675 0 0 0
1605 1 3.475621878518139 0.02748862181889025 14.028738159995257 0 0 0
1645 1 3.5224286796098574 3.4671986202763376 14.075045613305473 0 0 0
1207 1 5.330508303921174 35.174717932647354 12.28440578480949 0 -1 0
1606 1 5.287422785046331 1.7463698885961878 14.110576543129712 0 0 0
1247 1 5.26690937795168 3.5601916841545718 12.289614712937821 0 0 0
1212 1 7.016147121225684 1.7736957582900572 12.400144503210642 0 0 0
1609 1 7.0925250108945885 35.200137711772946 14.048367064078597 0 -1 0
1649 1 7.033318602887643 3.5572836520058417 14.057227034046221 0 0 0
1211 1 8.84322947812717 35.16772402469712 12.298477272989922 0 -1 0
1610 1 8.80657678789791 1.7828500936557836 14.088071113720716 0 0 0
1251 1 8.79116098740538 3.460222600133119 12.408257910114042 0 0 0
1216 1 10.574795798328916 1.7845184413148523 12.313120771097498 0 0 0
1613 1 10.57254055422614 0.019234085120226386 14.09581369573177 0 0 0
1653 1 10.58314785233065 3.52139149170421 14.04381749424367 0 0 0
1215 1 12.337479912048885 0.034889230346907905 12.309517976037556 0 0 0
1614 1 12.325739080689555 1.7344342093056127 14.133045734952157 0 0 0
1255 1 12.281485443086495 3.5355465718844856 12.331209070821929 0 0 0
1220 1 14.075662789723074 1.7437611668415136 12.276162705189323 0 0 0
1617 1 14.04149169702921 0.01193312555187554 14.06534957106243 0 0 0
1657 1 14.104618480319001 3.5228636215078657 14.082950175862898 0 0 0
1219 1 15.843761751517123 35.17569322566155 12.337032999924187 0 -1 0
1618 1 15.844396886392339 1.77573999434099 14.09743748089285 0 0 0
1259 1 15.856981628081659 3.509077815768116 12.323323223010279 0 0 0
1223 1 19.392547091289327 0.062330987820119796 12.326648467898174 0 0 0
1224 1 17.576522166300645 1.7964493580188343 12.30097508359416 0 0 0
1621 1 17.58785943776341 35.19169971001494 14.109721871003758 0 -1 0
1622 1 19.401505115082664 1.7851999290583613 14.102058200224631 0 0 0
1263 1 19.330744484721052 3.5130910040152794 12.332284225537869 0 0 0
1661 1 17.574274730362774 3.5310903693338673 14.049257236960777 0 0 0
1227 1 22.906309942941462 0.09268363143650755 12.319780826436379 0 0 0
1228 1 21.136264911703012 1.7773543251877757 12.306718485291578 0 0 0
1625 1 21.163822568879752 0.009560119142302858 14.063951761032403 0 0 0
1626 1 22.91641247355721 1.8073381776477304 14.02843312333341 0 0 0
1267 1 22.909264760382797 3.5272392263222687 12.312966523352308 0 0 0
1665 1 21.16320043718305 3.530678815627464 14.019638370643225 0 0 0
1231 1 26.4260584652081 0.022959808651047745 12.34739577459836 0 0 0
1232 1 24.63271990593178 1.733009650544399 12.305540449272169 0 0 0
1629 1 24.639487925669616 35.14324846411625 14.049069868150328 0 -1 0
1630 1 26.41594285034249 1.7984493224917009 14.079282078505136 0 0 0
1271 1 26.352184775801522 3.5392286770969346 12.30503700972533 0 0 0
1669 1 24.645257398786352 3.488468080861042 14.034541395574037 0 0 0
1235 1 29.945560004665694 0.06112458290928503 12.300598022536919 0 0 0
1236 1 28.154742714661044 1.7558631106542804 12.258998715498 0 0 0
1633 1 28.19271881596071 35.194220004238794 14.048696362628842 0 -1 0
1634 1 29.898555768059673 1.7879014609765964 14.06055683989781 0 0 0
1275 1 29.941620978574722 3.5040847736750127 12.284528303683723 0 0 0
1673 1 28.149801563947296 3.537618493143232 14.052560568724871 0 0 0
1239 1 33.47153262469225 35.15858871437676 12.293418469893622 0 -1 0
1240 1 31.687387773588146 1.7838454690866983 12.364423934835132 0 0 0
1637 1 31.66264120849584 35.191575115662694 14.087869876565561 0 -1 0
1638 1 33.43256048283705 1.7568609316319705 14.03835356924819 0 0 0
1279 1 33.38075354898348 3.4785726696507955 12.29752805128318 0 0 0
1677 1 31.638750319297195 3.535919506162154 14.08417329604321 0 0 0
1244 1 0.025718717699786415 5.288962265443955 12.333086908253987 0 0 0
1642 1 1.7495624620077297 5.2660134799272384 14.103821131368074 0 0 0
1283 1 1.736894978005842 7.054399036986863 12.305838797634694 0 0 0
1681 1 0.001091803549951996 6.9995647888538715 14.08727777747248 0 0 0
1248 1 3.5264892686631413 5.2873513053266485 12.297543030492754 0 0 0
1685 1 3.5069364426203857 7.059507664236771 14.09366706753063 0 0 0
1646 1 5.25804765341802 5.300901958167956 14.088716712762055 0 0 0
1287 1 5.280641892986071 7.017482493209139 12.323864572440291 0 0 0
1252 1 7.052738914014099 5.293860370107731 12.33960484948746 0 0 0
1689 1 7.045821668447483 7.016396435876352 14.130911931219048 0 0 0
1650 1 8.710438253189787 5.301351178945929 14.084866085478243 0 0 0
1291 1 8.815699814878455 7.062051662436831 12.311723856362812 0 0 0
1256 1 10.551950307846608 5.281229186549106 12.3390602839283 0 0 0
1693 1 10.53419362742099 7.114790490488761 14.100628066293115 0 0 0
1654 1 12.36746690504307 5.264443659418126 14.11512604823822 0 0 0
1295 1 12.28913536125246 7.041605350933045 12.245991333937988 0 0 0
1260 1 14.108558921105306 5.281861104714386 12.348017229994612 0 0 0
1697 1 14.035498386193762 7.023397154172542 14.043723094612373 0 0 0
1658 1 15.818362189778375 5.273121587014866 14.113363261795184 0 0 0
1299 1 15.872203073432708 7.023878734519663 12.301499886201203 0 0 0
1264 1 17.555462433071856 5.252309378384333 12.313993860791399 0 0 0
1662 1 19.32392480883902 5.327946588127181 14.10342948857301 0 0 0
1303 1 19.384574510073133 7.039063161419872 12.326834203079443 0 0 0
1701 1 17.569127637365238 7.042533935424278 14.082707448820646 0 0 0
1268 1 21.10080728892915 5.221143106407035 12.285408048675626 0 0 0
1666 1 22.852823559365262 5.291609235350533 14.106282069961722 0 0 0
1307 1 22.886058394591757 6.976348108127049 12.323823004952837 0 0 0
1705 1 21.115289802852843 7.036253431307226 14.072963891429445 0 0 0
1272 1 24.62621722785248 5.259472727990813 12.325024423821095 0 0 0
1670 1 26.359176119568822 5.312758748611423 14.059196185149744 0 0 0
1311 1 26.39193272362158 7.0310890545818685 12.291687617087678 0 0 0
1709 1 24.679747044480518 6.963595369453235 14.024958739029248 0 0 0
1276 1 28.209448488616683 5.309512775622403 12.283761133380082 0 0 0
1674 1 29.853138255681365 5.198235969916383 14.107621437441379 0 0 0
1315 1 29.959808267317523 7.043237574242596 12.325855958412383 0 0 0
1713 1 28.21011677839097 7.054929655712351 14.061766039167333 0 0 0
1280 1 31.65356905240764 5.243933597737752 12.324659582164173 0 0 0
1678 1 33.50209917252145 5.284294314209598 14.028606545028454 0 0 0
1319 1 33.413784778771955 7.065438545986906 12.34811745193313 0 0 0
1717 1 31.66657847804643 7.03860448806613 14.12670163500089 0 0 0
1284 1 35.18096779938178 8.798727253834606 12.335294330372475 -1 0 0
1682 1 1.7414442951349245 8.762355316826698 14.068344530515168 0 0 0
1323 1 1.699774408845269 10.56634795381811 12.327852565924292 0 0 0
1721 1 0.011816893286016249 10.540526860450456 14.085046945624937 0 0 0
1288 1 3.466949176900779 8.852081325448863 12.339342858069392 0 0 0
1725 1 3.5543437963955076 10.573197517926735 14.063987485167308 0 0 0
1686 1 5.2325190396721375 8.81337467433396 14.004929143162956 0 0 0
1327 1 5.315434033220279 10.523416325562783 12.365937877644654 0 0 0
1292 1 7.091176573408179 8.751861096747662 12.261789386482986 0 0 0
1729 1 7.003991822963867 10.565968876111377 14.071180863068845 0 0 0
1690 1 8.788343388316704 8.81056814529634 14.088038893636018 0 0 0
1331 1 8.763220937808835 10.5305652847053 12.308029169797281 0 0 0
1296 1 10.57966461582129 8.77728758101337 12.321763173705262 0 0 0
1733 1 10.581710954848615 10.511707222322729 14.065169050804213 0 0 0
1694 1 12.311533417085677 8.858255073124514 14.118805356969396 0 0 0
1335 1 12.311122232100379 10.566732514002782 12.279524217799969 0 0 0
1300 1 14.067991089820222 8.802143220954374 12.305209090721677 0 0 0
1737 1 14.102269655687122 10.58065668945126 14.063171011731635 0 0 0
1698 1 15.774156998661455 8.776522751410395 14.074417624872556 0 0 0
1339 1 15.833118284893363 10.552573014883375 12.322978241411564 0 0 0
1304 1 17.57968730503429 8.808617300545052 12.294625456867497 0 0 0
1702 1 19.353011570432013 8.776120476735988 14.099977045441946 0 0 0
1343 1 19.33539762423707 10.5325506882794 12.316169886069579 0 0 0
1741 1 17.57562488546275 10.563539350594052 14.075880457760245 0 0 0
1308 1 21.084532131061337 8.800246183506879 12.329255311169044 0 0 0
1706 1 22.903445160963024 8.813359470108498 14.094300482615443 0 0 0
1347 1 22.873141955725984 10.496366633083065 12.32879854304989 0 0 0
1745 1 21.15026984007202 10.536009484863476 14.085598027088764 0 0 0
1312 1 24.715041195210947 8.781361097397824 12.291071943336677 0 0 0
1710 1 26.393439980107434 8.82812110041384 14.081384095731282 0 0 0
1351 1 26.31856970492652 10.526856821552535 12.343018423364386 0 0 0
1749 1 24.625023774006237 10.560326485709291 14.07849890075882 0 0 0
1316 1 28.19562444853268 8.799054722666408 12.361888033316227 0 0 0
1714 1 29.9350712381751 8.811895360415196 14.040690456287841 0 0 0
1355 1 29.904006233261164 10.609841188513686 12.33710050613124 0 0 0
1753 1 28.170817779869914 10.53618675722356 14.114741281376787 0 0 0
1320 1 31.76257045698573 8.810970806875378 12.330865460708996 0 0 0
1718 1 33.49718060543971 8.8565018095915 14.095065703884574 0 0 0
1359 1 33.45013731991252 10.538410099082457 12.327035031358767 0 0 0
1757 1 31.643570530039725 10.512774355344277 14.04916705781809 0 0 0
1324 1 0.02451182294327518 12.325444844593711 12.350617755972953 0 0 0
1722 1 1.7229295809591398 12.382020941627806 14.076416671895936 0 0 0
1363 1 1.7167641780128808 14.086508118015596 12.327248969181715 0 0 0
1761 1 0.023127056040332925 14.093667410858641 14.076296333734456 0 0 0
1328 1 3.5300944599537902 12.29519104416117 12.316358353456987 0 0 0
1765 1 3.528427250530714 14.087041630430281 14.070671053991683 0 0 0
1726 1 5.251704456860608 12.310931765014764 14.066705930652015 0 0 0
1367 1 5.29161202436076 14.101544373886224 12.316786079272276 0 0 0
1332 1 7.083585020579996 12.333767412465034 12.314895850873217 0 0 0
1769 1 7.068341710970141 14.134323873505473 14.08286818597838 0 0 0
1730 1 8.818270452709134 12.336434354988699 14.065822840251283 0 0 0
1371 1 8.741986602653798 14.051758104597447 12.300138277468774 0 0 0
1336 1 10.554956222222025 12.326803154233597 12.312143122493314 0 0 0
1773 1 10.564986571885893 14.059021097257009 14.07112999792553 0 0 0
1734 1 12.286460918151835 12.270573173694501 14.040350953204646 0 0 0
1375 1 12.33939872500682 14.049935436647306 12.315857085069814 0 0 0
1340 1 14.04954449467234 12.342276668047566 12.280216192837733 0 0 0
1777 1 14.074116443795713 14.07311767736329 14.111645042553471 0 0 0
1738 1 15.845168090392189 12.341204355134145 14.11208167895 0 0 0
1379 1 15.808341985685907 14.076726145411644 12.288132660743917 0 0 0
1344 1 17.640818855202017 12.322239353271772 12.335695668134068 0 0 0
1742 1 19.392080036691784 12.321345775873239 14.11187934575393 0 0 0
1383 1 19.37686296781715 14.0900824612363 12.322776060130698 0 0 0
1781 1 17.601709046726985 14.097864912940437 14.072469460511927 0 0 0
1348 1 21.07967266543383 12.345591956124464 12.332946331972249 0 0 0
1746 1 22.89409873784375 12.306930095070575 14.012095014131765 0 0 0
1387 1 22.9157838880289 14.08011724325957 12.345187244948441 0 0 0
1785 1 21.11342235490627 14.101673973907522 14.04492617626187 0 0 0
1352 1 24.663543478646666 12.321300564288082 12.280945188187617 0 0 0
1750 1 26.377530037590837 12.309079043512416 14.124341097033287 0 0 0
1391 1 26.381109803068096 14.117155156784323 12.309426857896531 0 0 0
1789 1 24.598214749542958 14.075950388740848 14.099504495843117 0 0 0
1356 1 28.147463046589134 12.251165291227583 12.286233911502265 0 0 0
1754 1 29.93886007285773 12.358172897951157 14.106548118590371 0 0 0
1395 1 29.878788566672863 14.086725413106066 12.408911684976564 0 0 0
1793 1 28.175693835132332 14.046796056718103 14.101835672736218 0 0 0
1360 1 31.731611652058607 12.3213325767008 12.350689047439914 0 0 0
1758 1 33.4220741850544 12.334593363166059 14.086544326653469 0 0 0
1399 1 33.463344650446594 14.067646467378381 12.287196159381265 0 0 0
1797 1 31.63452814546489 14.093532848835586 14.102741534594145 0 0 0
1364 1 35.15951884374442 15.857065251037197 12.320610865913924 -1 0 0
1762 1 1.730601338809656 15.85693432706446 14.133571530286908 0 0 0
1403 1 1.7400451052985386 17.59416405023504 12.280268539750521 0 0 0
1404 1 0.037623027666316075 19.412692165518276 12.339956538933258 0 0 0
1801 1 0.011494431633847453 17.602418986223533 14.102517196967973 0 0 0
1802 1 1.7506823523122805 19.36192237953061 14.056234332640924 0 0 0
1368 1 3.5196503011359597 15.894832490282917 12.311023669226973 0 0 0
1408 1 3.547173810869565 19.341455564643482 12.340773934539454 0 0 0
1805 1 3.522370987842313 17.616812088206288 14.11649214365844 0 0 0
1766 1 5.272059698991144 15.828307910475989 14.072953595201447 0 0 0
1407 1 5.323032595944775 17.60047068441259 12.32158546633764 0 0 0
1806 1 5.247965338390444 19.30799615885253 14.097314503772216 0 0 0
1372 1 7.046350729815094 15.765364818716215 12.272257402222852 0 0 0
1412 1 7.026419101074648 19.352331340268087 12.33668248262309 0 0 0
1809 1 7.030467055181416 17.572429678694064 14.143787066484292 0 0 0
1770 1 8.85602499186421 15.808626002787872 14.094498195705846 0 0 0
1411 1 8.845260403763772 17.63032673541773 12.353084445005981 0 0 0
1810 1 8.799362236790344 19.336969034994315 14.06450351013949 0 0 0
1376 1 10.544329826776004 15.82629167265289 12.271033998794401 0 0 0
1416 1 10.552692647711737 19.364224544058867 12.33640124293534 0 0 0
1813 1 10.61458310183703 17.6472843763706 14.090573519742426 0 0 0
1774 1 12.330794968828354 15.879732807590553 14.092993910459446 0 0 0
1415 1 12.340392757717353 17.589394455120942 12.345177723641537 0 0 0
1814 1 12.350474760743811 19.379388637779332 14.090278430861032 0 0 0
1380 1 14.040000903408504 15.8777935653327 12.304848028461018 0 0 0
1420 1 14.093884294972316 19.30722397167674 12.26514463542481 0 0 0
1817 1 14.08663661744658 17.63083485631464 14.127962068980805 0 0 0
1778 1 15.85844769308535 15.782320884469753 14.05957676219219 0 0 0
1419 1 15.849847207279721 17.64823221110232 12.2913176961964 0 0 0
1818 1 15.79966709874221 19.322393397242045 14.070107445449963 0 0 0
1384 1 17.61950290956583 15.873622918127584 12.320542923437667 0 0 0
1782 1 19.349048645646636 15.829039566710401 14.090181258582977 0 0 0
1423 1 19.371475187425492 17.58226497126522 12.312354855950925 0 0 0
1424 1 17.56598787992014 19.410214782354334 12.333739372576465 0 0 0
1821 1 17.5676692720541 17.619877671024117 14.115714909075612 0 0 0
1822 1 19.3919812864472 19.370791863976738 14.036897048523713 0 0 0
1388 1 21.087250444708577 15.824123519891403 12.283246372339931 0 0 0
1786 1 22.86033134990636 15.867334853018617 14.121733132092757 0 0 0
1427 1 22.887544841341025 17.6150433398021 12.317290734112055 0 0 0
1428 1 21.12730711668011 19.3109639724858 12.333762204673075 0 0 0
1825 1 21.066522450388774 17.562171032844695 14.11539687640373 0 0 0
1826 1 22.853802908491787 19.34407057509391 14.056564964187613 0 0 0
1392 1 24.603189645239098 15.832850337849564 12.357750322579266 0 0 0
1790 1 26.358053270996205 15.859355375364157 14.070898787099072 0 0 0
1431 1 26.424700096905482 17.55739370463886 12.317329690011684 0 0 0
1432 1 24.609990731861526 19.374628820776078 12.383847220452434 0 0 0
1829 1 24.63787149095674 17.625533614870783 14.063793059716529 0 0 0
1830 1 26.41693981524248 19.36555234864121 14.092915010251062 0 0 0
1396 1 28.17793465867115 15.815809994875265 12.313445545738524 0 0 0
1794 1 29.898273001983476 15.86657459215136 14.084790692869822 0 0 0
1435 1 29.95956862426844 17.63442438902923 12.271002787209921 0 0 0
1436 1 28.144571671701605 19.33472875053663 12.329123765159025 0 0 0
1833 1 28.15074309470149 17.629671304153604 14.04756863583333 0 0 0
1834 1 29.92625405329307 19.342733527812765 14.118654438824375 0 0 0
1400 1 31.70053397791139 15.83575084381554 12.318635799785394 0 0 0
1798 1 33.42116390551997 15.812280889153715 14.114985620810431 0 0 0
1439 1 33.45717695477351 17.598828132549706 12.372625562660183 0 0 0
1440 1 31.684804554898527 19.377280042540274 12.342968626786616 0 0 0
1837 1 31.66994977713504 17.592361093717304 14.083750675084385 0 0 0
1838 1 33.446178265964406 19.371047713653486 14.078675002516725 0 0 0
1443 1 1.7533535248422494 21.16882108148771 12.350330164946957 0 0 0
1444 1 35.16150792564637 22.8914288615074 12.371198658867774 -1 0 0
1841 1 35.17434402902481 21.06346950503847 14.122462164756293 -1 0 0
1842 1 1.7871043761171155 22.856817472036585 14.037943794354495 0 0 0
1448 1 3.4992875064569327 22.89620396205126 12.317880566970008 0 0 0
1845 1 3.4985155599366027 21.157144273818922 14.078287789531046 0 0 0
1447 1 5.300736715639086 21.056832848719978 12.347716914377978 0 0 0
1846 1 5.293434195537328 22.849701542803437 14.04919877413394 0 0 0
1452 1 7.052385917288472 22.863711335595283 12.32838622306807 0 0 0
1849 1 7.051367247759556 21.146111111946404 14.089367377121235 0 0 0
1451 1 8.803825603774454 21.11449023136841 12.34131547083697 0 0 0
1850 1 8.854370904475498 22.850901401977193 14.067731827713537 0 0 0
1456 1 10.528764197369135 22.88571988694133 12.347025422572095 0 0 0
1853 1 10.592488136485573 21.155495621862602 14.111586195595342 0 0 0
1455 1 12.28822169045879 21.124575458018096 12.343498563801225 0 0 0
1854 1 12.355892293618362 22.889124860187348 14.12844666925651 0 0 0
1460 1 14.082990637128939 22.884981836632196 12.313248921404 0 0 0
1857 1 14.08294739502053 21.159976153010128 14.092285408213195 0 0 0
1459 1 15.856922159009049 21.13753830130122 12.31903086730272 0 0 0
1858 1 15.835115315533399 22.958325557532067 14.054722723257115 0 0 0
1463 1 19.336585307569745 21.065931590234015 12.282673418921656 0 0 0
1464 1 17.549420140156823 22.81045592154326 12.38668233144402 0 0 0
1861 1 17.621874223873146 21.0978243620239 14.082985533171456 0 0 0
1862 1 19.375818488452605 22.951996467328915 14.051564747527989 0 0 0
1467 1 22.853736159309644 21.112771946634997 12.32534232243747 0 0 0
1468 1 21.14327855201007 22.894018476982904 12.326177339111453 0 0 0
1865 1 21.14510258906764 21.13417584543807 14.078813251561947 0 0 0
1866 1 22.854338226524806 22.87681448371579 14.096533412948551 0 0 0
1471 1 26.419634069776755 21.122062229580465 12.274889563175707 0 0 0
1472 1 24.705355091129675 22.915485866149858 12.303488243516155 0 0 0
1869 1 24.614661273149455 21.136999025177346 14.07986307709185 0 0 0
1870 1 26.389191079344087 22.876675102936005 14.09553021764406 0 0 0
1475 1 29.887860705914807 21.119867410061115 12.394054443329733 0 0 0
1476 1 28.15081587995777 22.890268115814177 12.308590246828212 0 0 0
1873 1 28.215781758652717 21.081466185643368 14.079460730265485 0 0 0
1874 1 29.93034538946554 22.863039289104165 14.057467789240809 0 0 0
1479 1 33.48775375360106 21.14642171367055 12.332730445987822 0 0 0
1480 1 31.66703899372518 22.867778274454757 12.358205859618003 0 0 0
1877 1 31.73788663570251 21.095087322138784 14.077633048568995 0 0 0
1878 1 33.454077088071635 22.872541118303463 14.062683773405698 0 0 0
1483 1 1.7671711737384457 24.699681764299157 12.298718788478515 0 0 0
1484 1 0.003686418824707953 26.315956423408533 12.289709189040826 0 0 0
1881 1 35.171690011395334 24.61534966307285 14.102303550743986 -1 0 0
1882 1 1.7774458661977557 26.424680490999446 14.100474033012523 0 0 0
1488 1 3.5707473968948418 26.365691943441114 12.345775048362071 0 0 0
1885 1 3.5305930874579805 24.641510588525037 14.06666538023227 0 0 0
1487 1 5.257292453774139 24.66639270232444 12.330474205126336 0 0 0
1886 1 5.214695086145732 26.42885755052406 14.075000604418184 0 0 0
1492 1 7.0306817039521325 26.366278397579737 12.348727058573077 0 0 0
1889 1 7.072582141219323 24.62191629208046 14.082073928079861 0 0 0
1491 1 8.830712722204176 24.624707023731116 12.27979726136251 0 0 0
1890 1 8.787855220639438 26.405674644928308 14.086547780367924 0 0 0
1496 1 10.52790144730535 26.404508736375114 12.35852911796249 0 0 0
1893 1 10.579973851445342 24.678814405581925 14.111954433203753 0 0 0
1495 1 12.33182931039221 24.630219767045435 12.317451183191775 0 0 0
1894 1 12.325696942932714 26.393475701033534 14.027262714764342 0 0 0
1500 1 14.082977895349575 26.434424633758944 12.365364051609935 0 0 0
1897 1 14.103975129513426 24.664175698115553 14.077648626154607 0 0 0
1499 1 15.787424289820105 24.610260325597565 12.29515448504793 0 0 0
1898 1 15.826112958917152 26.401733552544723 14.086573135640107 0 0 0
1503 1 19.33057712792442 24.61474144745462 12.31555330124049 0 0 0
1504 1 17.612437486740752 26.37111947273283 12.327392914178176 0 0 0
1901 1 17.6011127736971 24.663305420656837 14.080768144468367 0 0 0
1902 1 19.37477810643178 26.388851912823554 14.110749187069121 0 0 0
1507 1 22.912460453230562 24.647552175394175 12.265112080899318 0 0 0
1508 1 21.119103527900613 26.3841180764894 12.349587026216389 0 0 0
1905 1 21.10743311552015 24.620896580504045 14.055432704843561 0 0 0
1906 1 22.89993926671361 26.415607802810424 14.087620650988319 0 0 0
1511 1 26.377808622697998 24.67043373456508 12.340796744621422 0 0 0
1512 1 24.68046433125642 26.364329418807287 12.30439942953212 0 0 0
1909 1 24.677300042011026 24.679638011286112 14.116797328394806 0 0 0
1910 1 26.39651074979499 26.34267667181326 14.06941939404794 0 0 0
1515 1 29.881617107709953 24.675578616220648 12.345401327735278 0 0 0
1516 1 28.17059199793175 26.39165832754105 12.306741158974713 0 0 0
1913 1 28.175639172211937 24.620976663648626 14.07696439045968 0 0 0
1914 1 29.91820992066055 26.356744196521912 14.087776678057434 0 0 0
1519 1 33.46648428355074 24.669129323093152 12.303765781165046 0 0 0
1520 1 31.668804173354516 26.41282042996697 12.319759044202057 0 0 0
1917 1 31.72801432517078 24.681368354479115 14.01629359724526 0 0 0
1918 1 33.436989349002246 26.462131422523438 14.091259455733441 0 0 0
1523 1 1.6888687333347494 28.173904999223733 12.313999033649543 0 0 0
1524 1 35.15485158386975 29.936166732071865 12.28918269345154 -1 0 0
1921 1 35.195347353467206 28.176796782050722 14.132363415732588 -1 0 0
1922 1 1.7388274201634724 29.88113937046994 14.093344651521571 0 0 0
1528 1 3.530930957431849 29.90283696769645 12.265659318259804 0 0 0
1925 1 3.530557064315536 28.187942636675235 14.097314952744501 0 0 0
1527 1 5.32168153573022 28.13896047475842 12.299245737442249 0 0 0
1926 1 5.26506764169819 29.878483413653278 14.026280115581725 0 0 0
1532 1 7.039203627711628 29.90291799544785 12.326206167041938 0 0 0
1929 1 7.0288307523510785 28.163354835836575 14.062041179478602 0 0 0
1531 1 8.764056787358957 28.171874559613915 12.321516215301184 0 0 0
1930 1 8.809000214991235 29.915241975588863 14.084438962945708 0 0 0
1536 1 10.559277104953832 29.938954341196556 12.30315222410017 0 0 0
1933 1 10.54587378517448 28.162055840678917 14.092798185695592 0 0 0
1535 1 12.310382108842383 28.15900501955518 12.308634236796088 0 0 0
1934 1 12.31100373706225 29.88769801132706 14.121039243416536 0 0 0
1540 1 14.058945517065798 29.95134601290366 12.290977346844299 0 0 0
1937 1 14.060351399106798 28.23825592917929 14.04859025156348 0 0 0
1539 1 15.815271473619807 28.23646046848732 12.348893201254382 0 0 0
1938 1 15.82494012136356 29.92560882710554 14.039487189009735 0 0 0
1543 1 19.385322805184984 28.126432971077495 12.350279319496977 0 0 0
1544 1 17.57377454518239 29.903038247459047 12.332781505291154 0 0 0
1941 1 17.655572483416154 28.152046302902267 14.079395964631729 0 0 0
1942 1 19.348450587832417 29.87682249778693 14.044380289712265 0 0 0
1547 1 22.88841258159245 28.165948259684207 12.309888336180887 0 0 0
1548 1 21.12709768977848 29.925624998355545 12.311995257556372 0 0 0
1945 1 21.161842731657007 28.19465409758098 14.057769706693849 0 0 0
1946 1 22.930819178831992 29.919319195471942 14.085279318395855 0 0 0
1551 1 26.44966906662329 28.197044664424627 12.271440959798186 0 0 0
1552 1 24.631061479421113 29.976323172366595 12.337242903034797 0 0 0
1949 1 24.601043361768394 28.1911646639572 14.04874154264475 0 0 0
1950 1 26.424163217566978 29.969283917789557 14.120023362766586 0 0 0
1555 1 29.93032951674791 28.15598399200423 12.34478852578186 0 0 0
1556 1 28.10910571077269 29.954287216312306 12.28335619908328 0 0 0
1953 1 28.170651281297012 28.203957475927172 14.035745997088034 0 0 0
1954 1 29.95169283668509 29.933421182323737 14.091941413190721 0 0 0
1559 1 33.43607842098524 28.185715537916042 12.310083075992809 0 0 0
1560 1 31.723956863805274 29.87849684390977 12.326600759605862 0 0 0
1957 1 31.713715531298273 28.189126978184404 14.056411596136956 0 0 0
1958 1 33.461941270445415 29.89458000796508 14.106752926944049 0 0 0
1563 1 1.8022018331970113 31.689415580992662 12.278627268539223 0 0 0
1564 1 35.17456511197447 33.44346693534077 12.313509101738992 -1 0 0
1961 1 0.013741755917559266 31.658176263073813 14.05638184412692 0 0 0
1962 1 1.7935296379521624 33.444652453529294 14.06370692435765 0 0 0
1568 1 3.52950100545074 33.42685452941631 12.339026384194886 0 0 0
1965 1 3.530029524815453 31.6356910659688 14.110961160862328 0 0 0
1567 1 5.2289942614970775 31.684628431074504 12.292706005555777 0 0 0
1966 1 5.244198384775103 33.4392775028643 14.099843499883283 0 0 0
1572 1 7.041608748352156 33.43365219351325 12.31441410511277 0 0 0
1969 1 7.011120025482203 31.656233958597063 14.063346626602907 0 0 0
1571 1 8.760996165345796 31.640555442632824 12.314326763885347 0 0 0
1970 1 8.755925408912319 33.4413296228117 14.073827923384489 0 0 0
1576 1 10.549666667729879 33.447351106248085 12.30455229968399 0 0 0
1973 1 10.546515261134754 31.694192266543368 14.066610282121239 0 0 0
1575 1 12.314110524235655 31.70706161473162 12.28368975929621 0 0 0
1974 1 12.339676921298182 33.44547661913346 14.078247701765417 0 0 0
1580 1 14.06793026964561 33.49653462134349 12.30722925384375 0 0 0
1977 1 14.075792705276385 31.64482190927186 14.085351913745706 0 0 0
1579 1 15.843921034780328 31.62671136360984 12.276847141455757 0 0 0
1978 1 15.8180081479134 33.49827327500237 14.104604308109241 0 0 0
1583 1 19.367819680002135 31.70617987780972 12.316204076852879 0 0 0
1584 1 17.602283831958612 33.385728181429116 12.285757361189868 0 0 0
1981 1 17.60443897695472 31.724368042876307 14.06300047816982 0 0 0
1982 1 19.33887660325347 33.43103693199227 14.118801282834193 0 0 0
1587 1 22.855426100032552 31.671762722967895 12.29767027222526 0 0 0
1588 1 21.041650012301766 33.48466693515736 12.348291193887727 0 0 0
1985 1 21.10725350736968 31.624950274651145 14.048934526250855 0 0 0
1986 1 22.91551018148404 33.45560743498734 14.060973572527141 0 0 0
1591 1 26.35271107745756 31.671222010354473 12.311732528033412 0 0 0
1592 1 24.657728846649828 33.484274954349196 12.300071054180584 0 0 0
1989 1 24.596183619321398 31.6760279813054 14.04570018518451 0 0 0
1990 1 26.418515702896883 33.43124893591156 14.142579470734454 0 0 0
1595 1 29.950412632059326 31.721476174923215 12.323256424696492 0 0 0
1596 1 28.165023962266304 33.380663865587515 12.335323821518427 0 0 0
1993 1 28.206923011740756 31.68828492031015 14.118458737395798 0 0 0
1994 1 29.930519524926954 33.47278164067558 14.08703124899109 0 0 0
1599 1 33.40636679275521 31.67116353352031 12.320063953212307 0 0 0
1600 1 31.733828034113916 33.437279125437605 12.352284096293573 0 0 0
1997 1 31.676833709642704 31.67808094389115 14.089791800614691 0 0 0
1998 1 33.44898175151491 33.45273351133007 14.071167822204425 0 0 0
1603 1 1.7335085942350437 0.023334096524808202 15.87683339858677 0 0 0
1604 1 35.1902148814399 1.7608735707145498 15.797293591819594 -1 0 0
2001 1 35.18680898237689 35.1968458651444 17.653867877637317 -1 -1 0
2002 1 1.7981726594194114 1.7865136899508307 17.523493367575753 0 0 0
2003 1 1.7673454723888573 35.17716921182347 19.34753501787427 0 -1 0
2004 1 0.008449481148241761 1.7524589472489822 19.286827090010043 0 0 0
1643 1 1.7563762386699102 3.5291543315433254 15.828543727902932 0 0 0
2041 1 35.16549399335453 3.4783580352072074 17.614223179436994 -1 0 0
2043 1 1.7351148070188323 3.5656159023318788 19.376877117239722 0 0 0
1608 1 3.5821515540089752 1.7464915755125514 15.824545347919326 0 0 0
2005 1 3.504857645608889 35.16431133356658 17.609836686733267 0 -1 0
2008 1 3.5362904408492946 1.7658731470114946 19.30544209605975 0 0 0
2045 1 3.4808556772549184 3.5303325785217057 17.596493018966825 0 0 0
1607 1 5.299181378717139 35.197532403866475 15.855715660193013 0 -1 0
2006 1 5.283668910844771 1.7304075962475767 17.60616524776966 0 0 0
2007 1 5.256458198880132 0.012821744677326904 19.326660177014812 0 0 0
1647 1 5.311431576166271 3.530830291959145 15.808844874240496 0 0 0
2047 1 5.299826073688923 3.526575902777782 19.31224806053921 0 0 0
1612 1 7.034070042060053 1.7698152152075446 15.85748053729996 0 0 0
2009 1 7.006199594428323 -0.001148699622117224 17.608044315908483 0 0 0
2012 1 7.05836044508238 1.7634430082832364 19.35163667769484 0 0 0
2049 1 7.111482789367031 3.5322237530723215 17.59078977659184 0 0 0
1611 1 8.88897618677558 0.019863896229009876 15.81312091327894 0 0 0
2010 1 8.838112884823108 1.8167785326350179 17.546649636126173 0 0 0
2011 1 8.824589312630325 35.17631056616795 19.340035561833584 0 -1 0
1651 1 8.801561423582417 3.527011692785031 15.835989815768613 0 0 0
2051 1 8.807169185395031 3.5566384668050937 19.37012368665797 0 0 0
1616 1 10.553667963170797 1.780166411181354 15.84079614580357 0 0 0
2013 1 10.53092607414772 35.17334302010622 17.581064611205385 0 -1 0
2016 1 10.553470343962907 1.772151096046141 19.36417848363055 0 0 0
2053 1 10.508899239921325 3.520756049282666 17.595927238166528 0 0 0
1615 1 12.374872921953003 0.014154442727173464 15.84013209075136 0 0 0
2014 1 12.355387769541514 1.7315758554959226 17.620993796054425 0 0 0
2015 1 12.312171472294871 0.01688653808408339 19.353771706810107 0 0 0
1655 1 12.32594663225122 3.538610324548219 15.835674817330144 0 0 0
2055 1 12.34532273778385 3.4851291010249374 19.380736826899355 0 0 0
1620 1 14.084248472349918 1.7607331286253796 15.784270608081236 0 0 0
2017 1 14.112217319022358 0.03845871364095283 17.617955671392448 0 0 0
2020 1 14.08305715346587 1.7362798109694513 19.390834643843455 0 0 0
2057 1 14.052970933400875 3.5235652783932463 17.557580985500962 0 0 0
1619 1 15.806873902217234 0.007833349568979766 15.795270439588162 0 0 0
2018 1 15.862210059973043 1.815496529054429 17.602821822419852 0 0 0
2019 1 15.85092911951638 35.19643886791241 19.373080067762384 0 -1 0
1659 1 15.81944774335039 3.5376049457659806 15.830589287469735 0 0 0
2059 1 15.763092377109002 3.5737329181516273 19.338841849873067 0 0 0
1623 1 19.40009723805205 0.007994564185481254 15.812432458963176 0 0 0
1624 1 17.608801859615966 1.7556117365519923 15.868163770992801 0 0 0
2021 1 17.57221154331765 0.017972568845084646 17.59535368729567 0 0 0
2022 1 19.420763202978975 1.7660161961695642 17.62767870155443 0 0 0
2023 1 19.359048123177892 35.16328232079457 19.377943326461082 0 -1 0
2024 1 17.58552470045305 1.7472060683111172 19.355787473389466 0 0 0
1663 1 19.351339011896254 3.5485812456899217 15.881550269911212 0 0 0
2061 1 17.57055912467904 3.518677127798465 17.641042019261217 0 0 0
2063 1 19.33354827530425 3.518103468302487 19.366231710497463 0 0 0
1627 1 22.89279992500691 0.045895290705793464 15.847498816106574 0 0 0
1628 1 21.096503003860796 1.823654393626235 15.830519960963446 0 0 0
2025 1 21.08749048239162 0.016628557998111748 17.610834929949544 0 0 0
2026 1 22.923707957043238 1.794685866031901 17.605540208554647 0 0 0
2027 1 22.860810429541935 -0.001856057184757293 19.334793793909594 0 0 0
2028 1 21.096636170364047 1.7573719326046244 19.371517595413497 0 0 0
1667 1 22.90204205354422 3.48179335051024 15.830778182314013 0 0 0
2065 1 21.122100497192346 3.5481217152142626 17.59798586589195 0 0 0
2067 1 22.887845406557464 3.5136730628776314 19.430238189075375 0 0 0
1631 1 26.37667860214705 0.009981628819850373 15.855576519449354 0 0 0
1632 1 24.653784560681686 1.7189198790023357 15.842326341458255 0 0 0
2029 1 24.65410489318895 35.192491739196335 17.5949725053308 0 -1 0
2030 1 26.434528856740126 1.7262889520242406 17.550570896800938 0 0 0
2031 1 26.34370892283057 35.17743149275696 19.325860303752286 0 -1 0
2032 1 24.605130198689352 1.750225691385909 19.358207575793198 0 0 0
1671 1 26.475360593983318 3.54209522224218 15.819463582926035 0 0 0
2069 1 24.591705317018242 3.5608055239451737 17.622425460970838 0 0 0
2071 1 26.413183551393455 3.515710341731849 19.4075430568734 0 0 0
1635 1 29.923087657519346 0.01918179077900775 15.841919793840164 0 0 0
1636 1 28.158677903953354 1.7837640954074807 15.826036333362818 0 0 0
2033 1 28.1637243896388 0.012178982682139967 17.58605663820849 0 0 0
2034 1 29.93455053991786 1.7253314132088524 17.586250176403723 0 0 0
2035 1 29.926120914714296 0.022135829926702957 19.353783365370504 0 0 0
2036 1 28.11912078326579 1.7231715592329213 19.337755364286764 0 0 0
1675 1 29.889631777045746 3.5549318365730684 15.825261460426194 0 0 0
2073 1 28.17256260057908 3.530699579755855 17.553400651001446 0 0 0
2075 1 29.928062463842757 3.5186782393787097 19.42756218694191 0 0 0
1639 1 33.41384566910878 35.18864031738501 15.806475210711486 0 -1 0
1640 1 31.69104674282707 1.7384169856726235 15.864682380104092 0 0 0
2037 1 31.67667772682772 35.162280159355184 17.593441000613403 0 -1 0
2038 1 33.43683293049847 1.7457007606643709 17.605611306504724 0 0 0
2039 1 33.460432061473476 0.07208857193687054 19.37108195097047 0 0 0
2040 1 31.69119142951905 1.804994710891232 19.331587595917387 0 0 0
1679 1 33.401680112818354 3.5042839800214476 15.830800667190596 0 0 0
2077 1 31.630556805944767 3.538637856911391 17.598148446627114 0 0 0
2079 1 33.443577947302636 3.5380431035259825 19.382326534705026 0 0 0
1644 1 0.004027305368102767 5.24387976345925 15.872613581656932 0 0 0
2042 1 1.7637756605551689 5.2554763829705236 17.569255257209576 0 0 0
2044 1 35.17595138653298 5.255616096467162 19.324015649054097 -1 0 0
1683 1 1.7232151656073096 7.042499179090119 15.77902447351233 0 0 0
2081 1 0.0049923960862432205 7.057368757205923 17.64264817058251 0 0 0
2083 1 1.7700984404773166 7.057393352211353 19.3253757615541 0 0 0
1648 1 3.5000469725643573 5.263331355668579 15.909694486234276 0 0 0
2048 1 3.494812177606997 5.284402425122772 19.380705010120675 0 0 0
2085 1 3.542432598211326 7.0160478043158 17.601670805203934 0 0 0
2046 1 5.284204394939079 5.298237934034375 17.54885903114782 0 0 0
1687 1 5.289489522903747 7.0253079832537395 15.835731378321647 0 0 0
2087 1 5.269929734197821 7.048990551177751 19.382025293890585 0 0 0
1652 1 7.065684221521594 5.342910434730793 15.832531511082852 0 0 0
2052 1 7.066900211657082 5.2819124563163795 19.308412313917994 0 0 0
2089 1 7.040923019163758 7.074287362008157 17.58146651030046 0 0 0
2050 1 8.780214188978654 5.265876492946334 17.582865225117455 0 0 0
1691 1 8.816611370386823 7.036643755092431 15.834331737372 0 0 0
2091 1 8.771701346903747 7.003135321051778 19.344252326381675 0 0 0
1656 1 10.543788581209776 5.303002566792983 15.844567761358004 0 0 0
2056 1 10.566850313456184 5.301558551993008 19.31746251831787 0 0 0
2093 1 10.605642962357326 7.0866780319911875 17.606927966025648 0 0 0
2054 1 12.341037297676559 5.2780244830855425 17.612233835589976 0 0 0
1695 1 12.324633452178736 7.074756968015846 15.86277707508964 0 0 0
2095 1 12.304460202515221 7.0436225503726595 19.343435499109184 0 0 0
1660 1 14.111325883339626 5.23061814013403 15.866220450507251 0 0 0
2060 1 14.06982306527729 5.295369035238955 19.373012413826807 0 0 0
2097 1 14.065734605207677 7.06759284849557 17.585567138832484 0 0 0
2058 1 15.813084998029185 5.255333111717448 17.618284261658086 0 0 0
1699 1 15.83195603065985 7.008178676818947 15.872767610349685 0 0 0
2099 1 15.820040787229788 7.067359232346717 19.3743594889608 0 0 0
1664 1 17.644287564803523 5.265816509261699 15.828355145816584 0 0 0
2062 1 19.39785104838452 5.2546657234306995 17.519607064828595 0 0 0
2064 1 17.670420572435997 5.263424058146375 19.38446299619971 0 0 0
1703 1 19.370450919234784 7.028188215830164 15.803760226400314 0 0 0
2101 1 17.560005920862075 7.060295012095641 17.58464882078938 0 0 0
2103 1 19.35041201172446 7.055121843615584 19.32972956079467 0 0 0
1668 1 21.075464514620514 5.282259281256778 15.824164952338027 0 0 0
2066 1 22.912007008967297 5.287940605325172 17.599083997697317 0 0 0
2068 1 21.126144555737913 5.287168161255613 19.362077801526038 0 0 0
1707 1 22.914935229249252 6.98628189342907 15.798606007734323 0 0 0
2105 1 21.16024329796767 7.036438021934295 17.61285566753949 0 0 0
2107 1 22.937256215036786 7.03541482848825 19.34658205819337 0 0 0
1672 1 24.607449140300236 5.186140412663346 15.832243887748747 0 0 0
2070 1 26.394191808620633 5.321865545586035 17.61199317718892 0 0 0
2072 1 24.6699582115152 5.294997004336927 19.373634125088614 0 0 0
1711 1 26.40874633436347 7.023564351725599 15.798243578503202 0 0 0
2109 1 24.644172421524456 7.062719874801942 17.60127724260468 0 0 0
2111 1 26.3745461552215 6.988144659788364 19.426643028417185 0 0 0
1676 1 28.17585231384976 5.255563567350828 15.839942567087418 0 0 0
2074 1 29.912685587026253 5.273131677042881 17.587680551679416 0 0 0
2076 1 28.155917200051245 5.282286770022829 19.331064139850312 0 0 0
1715 1 29.96183965130593 7.036482933565251 15.841726707607545 0 0 0
2113 1 28.14123416519283 7.024402333603334 17.632310548767293 0 0 0
2115 1 29.901914538449848 7.069117905165904 19.329586280863527 0 0 0
1680 1 31.72428916632871 5.235516426067856 15.884926214379506 0 0 0
2078 1 33.4491916844687 5.2483036480572975 17.6168597781893 0 0 0
2080 1 31.700991084400847 5.305935324218929 19.38880816181219 0 0 0
1719 1 33.45216796364332 7.006103101623701 15.846707630277368 0 0 0
2117 1 31.72046110249428 7.04318801931492 17.626760108537432 0 0 0
2119 1 33.39723563705173 7.001273050658391 19.33065436807433 0 0 0
1684 1 35.20171249554541 8.803439287192504 15.851820883362537 -1 0 0
2082 1 1.7444753224642942 8.790618600075762 17.60459065450022 0 0 0
2084 1 0.001524166968009355 8.818155501918765 19.37631164236431 0 0 0
1723 1 1.7211657670312264 10.563010330566202 15.861167426730182 0 0 0
2121 1 35.18366466236052 10.54301737707772 17.607188233324344 -1 0 0
2123 1 1.7384636516631704 10.585650067984453 19.360950123938853 0 0 0
1688 1 3.5469691071840184 8.816128442909013 15.783216553168188 0 0 0
2088 1 3.4878686756941337 8.815754613105545 19.375724887825978 0 0 0
2125 1 3.591056665508469 10.564562566624822 17.623442465588518 0 0 0
2086 1 5.2707128761041 8.81717721903504 17.615878539742972 0 0 0
1727 1 5.314516010780247 10.552416097099442 15.783979384767868 0 0 0
2127 1 5.319111245030419 10.531338538001215 19.315843085227716 0 0 0
1692 1 7.061339776558543 8.80193523149768 15.845971516125157 0 0 0
2092 1 7.025210758327893 8.801420779406097 19.354749096011357 0 0 0
2129 1 6.996421576684751 10.528122197288562 17.623310416168195 0 0 0
2090 1 8.817208978483011 8.799788521483775 17.590370499948786 0 0 0
1731 1 8.725228974638064 10.525428251880282 15.861306430298109 0 0 0
2131 1 8.79969393443023 10.543497063130621 19.351431816615428 0 0 0
1696 1 10.595080775216688 8.777890884924181 15.827526306192029 0 0 0
2096 1 10.529358259112676 8.811776528807673 19.401319032603876 0 0 0
2133 1 10.521602006169001 10.587301317946665 17.576659571758782 0 0 0
2094 1 12.298751779678325 8.787181397167092 17.646563433637997 0 0 0
1735 1 12.308312452624412 10.56118353775531 15.8466564292465 0 0 0
2135 1 12.34443281321705 10.599450647629045 19.371339105870955 0 0 0
1700 1 14.127642303819524 8.813157839583834 15.852155943368555 0 0 0
2100 1 14.069858890015785 8.80368706404917 19.369231365980077 0 0 0
2137 1 14.113258160374556 10.596070992018857 17.56443757353315 0 0 0
2098 1 15.78570037292945 8.78396958056987 17.62058579208613 0 0 0
1739 1 15.781991035631723 10.57247891822558 15.854257656028894 0 0 0
2139 1 15.831838142353698 10.570172593086308 19.370212549808233 0 0 0
1704 1 17.622853087122508 8.792487886349543 15.831861277985178 0 0 0
2102 1 19.360719352969863 8.812858016916989 17.5594127107245 0 0 0
2104 1 17.623543439518524 8.820355895356496 19.38227068332843 0 0 0
1743 1 19.357580474340416 10.568670361999079 15.832761352982955 0 0 0
2141 1 17.607784630271283 10.600243285801643 17.525165766156025 0 0 0
2143 1 19.38114534189159 10.554982897027632 19.360081244971184 0 0 0
1708 1 21.091408127386764 8.762095835120489 15.863046816282603 0 0 0
2106 1 22.89419668473711 8.787997343448112 17.579460170845646 0 0 0
2108 1 21.143841083895477 8.761902315203905 19.344350943204997 0 0 0
1747 1 22.926552062486582 10.539700348606278 15.90229421497973 0 0 0
2145 1 21.122846781040746 10.587354570293694 17.650730322450254 0 0 0
2147 1 22.931822367190414 10.554161524848126 19.405659962475085 0 0 0
1712 1 24.646208012993956 8.754511519812482 15.830010735925118 0 0 0
2110 1 26.41811981724254 8.754567332028559 17.60414969876637 0 0 0
2112 1 24.612149334111976 8.77100534721813 19.348263374979528 0 0 0
1751 1 26.456013718151823 10.590924873732698 15.840503016559259 0 0 0
2149 1 24.67179090142719 10.53570187921016 17.644995897708686 0 0 0
2151 1 26.373293249026624 10.569275793605689 19.35676250235411 0 0 0
1716 1 28.19356325955874 8.815133401678947 15.823059921134805 0 0 0
2114 1 29.921705876897786 8.751151052784989 17.5595986378142 0 0 0
2116 1 28.158541866921922 8.824963061487033 19.354452799302326 0 0 0
1755 1 29.911482490985303 10.570868311030003 15.843553823983497 0 0 0
2153 1 28.12083273654728 10.552405802558217 17.588603831674142 0 0 0
2155 1 29.94295348307708 10.518841017880975 19.318558580793063 0 0 0
1720 1 31.73419375869318 8.853402996686878 15.797648452402031 0 0 0
2118 1 33.443641034869735 8.765982911600446 17.64954716040492 0 0 0
2120 1 31.71713331127168 8.779313060587027 19.37305039031107 0 0 0
1759 1 33.471220457874075 10.572718092323628 15.831624733741156 0 0 0
2157 1 31.618140427062492 10.6136548429719 17.60772718056664 0 0 0
2159 1 33.47850954966674 10.551078571341645 19.305928382570162 0 0 0
1724 1 0.013581346686160255 12.335334169129633 15.853426406976345 0 0 0
2122 1 1.7649610023372906 12.364062530717847 17.582248645487834 0 0 0
2124 1 0.012427317007378449 12.353045576695862 19.34509878619412 0 0 0
1763 1 1.7560819408001656 14.084663566304524 15.849066794470987 0 0 0
2161 1 35.18107846976435 14.116008824443753 17.65615060588214 -1 0 0
2163 1 1.7896686215568587 14.099479804950615 19.391209186764 0 0 0
1728 1 3.5185653428689387 12.290777786073306 15.77899283691278 0 0 0
2128 1 3.5449024257181247 12.3407177688718 19.34430743490624 0 0 0
2165 1 3.5613608284947262 14.091529645456017 17.589479621157796 0 0 0
2126 1 5.291372965991538 12.317779039599824 17.56602879937791 0 0 0
1767 1 5.238719748903458 14.052272025109207 15.83610620667949 0 0 0
2167 1 5.278061648500689 14.106399301999128 19.390193915762442 0 0 0
1732 1 7.023398141053118 12.275816060376071 15.831620986739773 0 0 0
2132 1 6.990073591942007 12.30232925557959 19.393212982099136 0 0 0
2169 1 7.056563981472719 14.11486887016028 17.602107116747842 0 0 0
2130 1 8.735634857349524 12.309139823549597 17.55939375396964 0 0 0
1771 1 8.772483199623082 14.035637359505209 15.879586945568047 0 0 0
2171 1 8.81208004009615 14.061412006399852 19.342191669745024 0 0 0
1736 1 10.484435055370147 12.334822394863771 15.850699428313192 0 0 0
2136 1 10.601614336207255 12.300213281583455 19.367846869513123 0 0 0
2173 1 10.548765931908354 14.099735142189008 17.56520558167924 0 0 0
2134 1 12.335297463019073 12.291143457858157 17.54006484355665 0 0 0
1775 1 12.312152754999664 14.05715074391783 15.832677639185098 0 0 0
2175 1 12.361469648551553 14.14461926115765 19.353425617748574 0 0 0
1740 1 14.080909193827072 12.308205280456328 15.880957736803387 0 0 0
2140 1 14.09571583724399 12.32215380814399 19.373776192009284 0 0 0
2177 1 14.066164534404558 14.073368096909793 17.608520309803332 0 0 0
2138 1 15.856645151908197 12.287225880231288 17.611720506744685 0 0 0
1779 1 15.826655163591434 14.120351516236154 15.816048108538546 0 0 0
2179 1 15.840993816287863 14.132539827402958 19.348490535511964 0 0 0
1744 1 17.63891179320836 12.339907287819551 15.824903120460949 0 0 0
2142 1 19.336181368624715 12.312978451045478 17.580944820906698 0 0 0
2144 1 17.586040644416382 12.296530867281081 19.34553859762581 0 0 0
1783 1 19.365881539009745 14.068141305230823 15.866962267796865 0 0 0
2181 1 17.54271122896481 14.098163742381978 17.62052775843152 0 0 0
2183 1 19.417740185322657 14.12024884748146 19.325412812089738 0 0 0
1748 1 21.089212864439762 12.266082097987422 15.882045784987262 0 0 0
2146 1 22.91948323907567 12.288542051598176 17.63166412737083 0 0 0
2148 1 21.089905483690167 12.32888941428501 19.359465279746072 0 0 0
1787 1 22.86010489356126 14.022380985379652 15.90802492277794 0 0 0
2185 1 21.15575499469295 14.087969597302827 17.642954481232277 0 0 0
2187 1 22.855101104982754 14.05862780091018 19.40105821645556 0 0 0
1752 1 24.660262155440595 12.321438285571775 15.832762748776116 0 0 0
2150 1 26.40987982713212 12.375102631561438 17.61831252160519 0 0 0
2152 1 24.604243995374528 12.298190866997365 19.38232076860484 0 0 0
1791 1 26.43736242385493 14.033608425619967 15.790365272874816 0 0 0
2189 1 24.6281358675594 14.137400869549769 17.58434209600392 0 0 0
2191 1 26.3952955340604 14.068303044469236 19.310753601913 0 0 0
1756 1 28.170271356830323 12.311827678512014 15.873047517261456 0 0 0
2154 1 29.915525248058543 12.282767705738442 17.5550235045596 0 0 0
2156 1 28.18808774592681 12.301666993164877 19.36619289300865 0 0 0
1795 1 29.94316598183186 14.08933649185075 15.859095663123547 0 0 0
2193 1 28.212283991725073 14.100189874864062 17.58877596172155 0 0 0
2195 1 29.938939811597034 14.098211824121666 19.41299234413017 0 0 0
1760 1 31.671931256244772 12.266095715986854 15.862515993241063 0 0 0
2158 1 33.473808027000885 12.28486465106334 17.570407515112553 0 0 0
2160 1 31.654555067248612 12.335285298236208 19.329265131934246 0 0 0
1799 1 33.45284795540587 14.10067193471864 15.814778705228429 0 0 0
2197 1 31.6438232813083 14.04231273481157 17.589411887665815 0 0 0
2199 1 33.42305953911692 14.079934834459952 19.349789859093303 0 0 0
1764 1 35.18123468059083 15.845795833040334 15.82259434536215 -1 0 0
2162 1 1.7762832808191722 15.839269475995694 17.59757326629402 0 0 0
2164 1 8.466700661853132e-05 15.863250474811135 19.36804731297158 0 0 0
1803 1 1.7729308653779667 17.592146518963364 15.810156486920999 0 0 0
1804 1 35.18698968804932 19.349419467716537 15.806104897280177 -1 0 0
2201 1 35.15903905147431 17.599486753035116 17.63183350221754 -1 0 0
2202 1 1.7253075135260856 19.33957011784598 17.57465586692345 0 0 0
2203 1 1.753420364765447 17.641402780711704 19.326365428382132 0 0 0
2204 1 0.005979351222732573 19.325568618607544 19.40704515766189 0 0 0
1768 1 3.507621571309314 15.845708672969407 15.793030218252166 0 0 0
2168 1 3.4818989898333026 15.786458249362472 19.356947588876015 0 0 0
1808 1 3.492058981004991 19.342777304317952 15.865172448469151 0 0 0
2205 1 3.551090749655759 17.57738604572513 17.58001104818967 0 0 0
2208 1 3.5089070437258947 19.353609352594088 19.311513322766753 0 0 0
2166 1 5.29422418734628 15.853948775396725 17.59940817141143 0 0 0
1807 1 5.253933110822532 17.589480760888765 15.83926484911647 0 0 0
2206 1 5.2659031549812045 19.33737699483552 17.590050406131112 0 0 0
2207 1 5.294724885523312 17.624993145391365 19.361685725395784 0 0 0
1772 1 6.994413258317412 15.869946477401227 15.809316086175784 0 0 0
2172 1 7.061931081438019 15.838681044668082 19.43285997867782 0 0 0
1812 1 7.011592989307078 19.330729773032946 15.860668033138081 0 0 0
2209 1 7.036359441135989 17.654183941458363 17.57641230225007 0 0 0
2212 1 6.980676818951371 19.379926091231667 19.31202251513451 0 0 0
2170 1 8.777517115213033 15.81112481747308 17.581372819645075 0 0 0
1811 1 8.828270370948234 17.64285220005295 15.8437624893362 0 0 0
2210 1 8.816759704029616 19.341227769066897 17.608233576610782 0 0 0
2211 1 8.783457365096027 17.5899864674085 19.38356119477668 0 0 0
1776 1 10.57273516045281 15.838286478957551 15.868262910358645 0 0 0
2176 1 10.51308242890166 15.833119918621563 19.320005438154237 0 0 0
1816 1 10.553487630937145 19.3622819186751 15.838636218769283 0 0 0
2213 1 10.570270966498075 17.584226372967176 17.60225349683261 0 0 0
2216 1 10.54919027895003 19.380224190124974 19.410032465619807 0 0 0
2174 1 12.325289767288233 15.804529266362934 17.586262250454944 0 0 0
1815 1 12.300833768341144 17.56768564442795 15.86343527036142 0 0 0
2214 1 12.321273394495329 19.376432727232814 17.619095457323915 0 0 0
2215 1 12.28408838775506 17.610998062112298 19.349646142327202 0 0 0
1780 1 14.061738617162312 15.86763289883812 15.876476230830896 0 0 0
2180 1 14.094848725827816 15.875682728437415 19.342744343274255 0 0 0
1820 1 14.121098418087632 19.355024666660217 15.833262948421606 0 0 0
2217 1 14.019255122068122 17.638581057490818 17.607510849592394 0 0 0
2220 1 14.071485338198698 19.365375048501946 19.30041598030538 0 0 0
2178 1 15.866746943873649 15.846815870071632 17.564627817266846 0 0 0
1819 1 15.847158497624008 17.610022110342864 15.813234499712427 0 0 0
2218 1 15.86020389353353 19.353682632638737 17.563809810136764 0 0 0
2219 1 15.800781922586117 17.5612408429445 19.32631942737523 0 0 0
1784 1 17.581489923827444 15.90291643722419 15.8282663528823 0 0 0
2182 1 19.362351451335215 15.821810420672588 17.55684197487002 0 0 0
2184 1 17.633140869036108 15.850862517223172 19.36349190175717 0 0 0
1823 1 19.351813258220666 17.580879058995645 15.83395048891968 0 0 0
1824 1 17.6507139511613 19.345718098406643 15.816375441876321 0 0 0
2221 1 17.622738880068546 17.60178983417782 17.572695272104593 0 0 0
2222 1 19.349671759332317 19.39922081765181 17.586208271380194 0 0 0
2223 1 19.329910124289217 17.564373379177542 19.331350800771585 0 0 0
2224 1 17.6059712039372 19.330366398208668 19.373609922658513 0 0 0
1788 1 21.101243948515755 15.888358319166475 15.840921384058225 0 0 0
2186 1 22.87686192857005 15.900741448981293 17.581778873807647 0 0 0
2188 1 21.098007911547683 15.84171098650577 19.336076598613353 0 0 0
1827 1 22.854226767377085 17.616757069130653 15.825941153027502 0 0 0
1828 1 21.10188378081768 19.38449784670347 15.871739179111849 0 0 0
2225 1 21.13062065043262 17.654142307878853 17.52929501676541 0 0 0
2226 1 22.810965311643983 19.352409552077184 17.594602378816766 0 0 0
2227 1 22.851002539933912 17.631326542966118 19.342552714168047 0 0 0
2228 1 21.087134761816948 19.418559704550276 19.344745245107237 0 0 0
1792 1 24.668105288873736 15.879242928503825 15.825317260171076 0 0 0
2190 1 26.369087102362585 15.82367624668842 17.595383480661887 0 0 0
2192 1 24.61113538745128 15.84720862235965 19.347087626859135 0 0 0
1831 1 26.37669158867165 17.597406209975272 15.824106568838511 0 0 0
1832 1 24.627791815900995 19.32753901369665 15.838064106769176 0 0 0
2229 1 24.595912834651582 17.601432536547385 17.597456800941572 0 0 0
2230 1 26.40364472490891 19.327651277296557 17.62900008845268 0 0 0
2231 1 26.45787587486649 17.62847077134413 19.375072411108626 0 0 0
2232 1 24.63887991050362 19.271973906109253 19.373160567045378 0 0 0
1796 1 28.19441767531735 15.826702700884024 15.801489702501835 0 0 0
2194 1 29.879901501342403 15.85149923308825 17.56171946076432 0 0 0
2196 1 28.159682203656224 15.834374638329194 19.34849911502109 0 0 0
1835 1 29.9169466307597 17.55687976009921 15.863076415089287 0 0 0
1836 1 28.165714340563756 19.299134490767464 15.824050686178493 0 0 0
2233 1 28.194724920669486 17.59484070190427 17.578823206157164 0 0 0
2234 1 29.926344244824435 19.3611996135112 17.55748407389815 0 0 0
2235 1 29.96225012484631 17.60460710518332 19.381606799797336 0 0 0
2236 1 28.173235445874532 19.380863814483934 19.405863569911364 0 0 0
1800 1 31.655154997554227 15.865249428975183 15.82620436754234 0 0 0
2198 1 33.454096446236335 15.859196278604372 17.60032780367692 0 0 0
2200 1 31.63961714273247 15.88463236021998 19.364475088207517 0 0 0
1839 1 33.363928098418484 17.59706594679899 15.89972829578817 0 0 0
1840 1 31.66819081027228 19.33168970552026 15.856550532073777 0 0 0
2237 1 31.65733436571581 17.61249438308832 17.64655604681397 0 0 0
2238 1 33.42741212043103 19.37631484011857 17.59989932873909 0 0 0
2239 1 33.40291899180666 17.617407616414464 19.341306241775747 0 0 0
2240 1 31.69288480201772 19.383775962825094 19.388126794771857 0 0 0
1843 1 1.7494818305655617 21.072259775713864 15.878632134074392 0 0 0
1844 1 35.135103666054356 22.877901325061007 15.882258910259349 -1 0 0
2241 1 35.16814961340606 21.139896193125008 17.585731601049112 -1 0 0
2242 1 1.7580097748208519 22.88020019162024 17.54362585778558 0 0 0
2243 1 1.7688084104261175 21.155663886318887 19.376243368088378 0 0 0
2244 1 35.19789809794897 22.92355074207159 19.312895439376344 -1 0 0
1848 1 3.53837759054693 22.860213615164422 15.857221803197287 0 0 0
2245 1 3.5210774822958046 21.185247280761054 17.630625760890833 0 0 0
2248 1 3.541007641683962 22.86741986998189 19.35149703424532 0 0 0
1847 1 5.285899981758379 21.105392022759784 15.870607572084081 0 0 0
2246 1 5.268543288835486 22.847801976723947 17.62986931972867 0 0 0
2247 1 5.310487081222977 21.140695776094656 19.379238597327348 0 0 0
1852 1 7.094253257611024 22.82123703335446 15.869252943533253 0 0 0
2249 1 7.02673986335823 21.113219942977604 17.618415058644064 0 0 0
2252 1 7.032860781481678 22.851730065442887 19.3487715821915 0 0 0
1851 1 8.814074367836769 21.124688652057852 15.888436486314882 0 0 0
2250 1 8.809978421165408 22.86919268954554 17.60926082589273 0 0 0
2251 1 8.806579026070791 21.121416494583475 19.367512573190524 0 0 0
1856 1 10.578835748884421 22.880406823663677 15.827504623787636 0 0 0
2253 1 10.56323605976111 21.160100335660736 17.586123543153626 0 0 0
2256 1 10.56948328488755 22.888222437215134 19.367761762188376 0 0 0
1855 1 12.268023700623283 21.12530787342844 15.794069705616327 0 0 0
2254 1 12.326564355609676 22.862699728997704 17.599752486558707 0 0 0
2255 1 12.346208221930324 21.12819155290073 19.369140216322204 0 0 0
1860 1 14.080670486920603 22.844424280179876 15.86187074335067 0 0 0
2257 1 14.103152397767703 21.15990258505781 17.624698043477842 0 0 0
2260 1 14.065652684886157 22.81010295289628 19.325715130514634 0 0 0
1859 1 15.839828775034626 21.09374368622983 15.821984458870364 0 0 0
2258 1 15.826743741399191 22.8757219160509 17.537186518179396 0 0 0
2259 1 15.852057174012069 21.115942001923266 19.340754319568788 0 0 0
1863 1 19.29919864253701 21.150429172104467 15.828893987371133 0 0 0
1864 1 17.547505290642523 22.87227525625755 15.863405391279255 0 0 0
2261 1 17.599096055084118 21.15421951383925 17.558140590833457 0 0 0
2262 1 19.412821634293454 22.863924860447202 17.621070906252857 0 0 0
2263 1 19.387792479356293 21.177057637483763 19.3584337434901 0 0 0
2264 1 17.604106826606387 22.84274448550409 19.345079448845983 0 0 0
1867 1 22.91248703688004 21.1308938845873 15.866160450357297 0 0 0
1868 1 21.12634922707001 22.881730928400867 15.809641729248211 0 0 0
2265 1 21.121875207378597 21.1599653258322 17.580702119511844 0 0 0
2266 1 22.863904659521037 22.86117709495296 17.60205985539199 0 0 0
2267 1 22.876183613778007 21.113141156355447 19.33960608022292 0 0 0
2268 1 21.093431665606357 22.860867084548634 19.37051177906047 0 0 0
1871 1 26.37103408599449 21.10397121512276 15.872619027333771 0 0 0
1872 1 24.661462125430273 22.88128841543653 15.850854773258154 0 0 0
2269 1 24.642224122810077 21.096247616929446 17.623794392581164 0 0 0
2270 1 26.403626589638307 22.892289807792253 17.608902546154034 0 0 0
2271 1 26.470839690975776 21.120430121758364 19.357897828932924 0 0 0
2272 1 24.64553967352044 22.883953724567924 19.35919933984468 0 0 0
1875 1 29.88896352056731 21.09061514465104 15.902493119917084 0 0 0
1876 1 28.167666874553095 22.880957329414137 15.864318453580447 0 0 0
2273 1 28.143995715935105 21.166854153555683 17.616750820992745 0 0 0
2274 1 29.95987297799 22.8937255095175 17.564882270818504 0 0 0
2275 1 29.936136484493385 21.126663030589196 19.40208196024457 0 0 0
2276 1 28.233060132893936 22.866557367491886 19.32772197539572 0 0 0
1879 1 33.4436899878415 21.126863219846793 15.788169829708432 0 0 0
1880 1 31.716416793614812 22.857347721865278 15.841516401126245 0 0 0
2277 1 31.67719558894251 21.139208221253156 17.603824301599197 0 0 0
2278 1 33.41891473428739 22.86806710659198 17.571522945594687 0 0 0
2279 1 33.41805606845091 21.122256891627227 19.33818154104887 0 0 0
2280 1 31.68580354952663 22.896249918726372 19.412467494782078 0 0 0
1883 1 1.7429639859735322 24.64143677145363 15.871193057518003 0 0 0
1884 1 35.15475757428611 26.38797367233008 15.878646270098455 -1 0 0
2281 1 0.02081121339805164 24.68767246560148 17.568031223811385 0 0 0
2282 1 1.7551688588430339 26.350999313565357 17.61492650830816 0 0 0
2283 1 1.7532606872754597 24.639137561760705 19.326782957389888 0 0 0
2284 1 35.185943374646406 26.396119465266757 19.371870241389047 -1 0 0
1888 1 3.4566661370753082 26.3793125273634 15.913369533919546 0 0 0
2285 1 3.5393757552448304 24.670615167425503 17.595282115383796 0 0 0
2288 1 3.573582584202439 26.3505975302779 19.353814554570057 0 0 0
1887 1 5.274646473923988 24.61475354834064 15.869718853876856 0 0 0
2286 1 5.250934210545559 26.382892210676665 17.58841534083497 0 0 0
2287 1 5.280846763064109 24.59665209918507 19.374064793606916 0 0 0
1892 1 7.019557177191854 26.372489957024637 15.780429235463902 0 0 0
2289 1 7.0331543424118745 24.630045309506 17.586389828524705 0 0 0
2292 1 7.085790904105718 26.402187260148686 19.387473307551847 0 0 0
1891 1 8.787588107622618 24.691112597913097 15.833253114769157 0 0 0
2290 1 8.774548794040442 26.376033968152043 17.609419306705156 0 0 0
2291 1 8.82005104486604 24.61350182526793 19.40928628900937 0 0 0
1896 1 10.550645272492714 26.41127602488123 15.85903984939301 0 0 0
2293 1 10.566184214568127 24.66487694242486 17.558213677956747 0 0 0
2296 1 10.58254446791489 26.41151237064976 19.340003422912634 0 0 0
1895 1 12.27710405681001 24.670106527892383 15.785828179726906 0 0 0
2294 1 12.305186577330218 26.37229135766839 17.563806999915265 0 0 0
2295 1 12.278737026656659 24.630638610784857 19.40763134952228 0 0 0
1900 1 14.124979475354772 26.345348693616252 15.830845672026177 0 0 0
2297 1 14.068563076188136 24.64438526669873 17.626297833927666 0 0 0
2300 1 14.085866257623309 26.39499201701442 19.341785079860216 0 0 0
1899 1 15.839476861305226 24.628534604398418 15.811485814420658 0 0 0
2298 1 15.830576519241157 26.398447513706916 17.630594614950855 0 0 0
2299 1 15.835769391135189 24.635623728900313 19.33410181582661 0 0 0
1903 1 19.373495793619476 24.62547117751314 15.852413369153318 0 0 0
1904 1 17.602249148327353 26.340045468986197 15.882481415928204 0 0 0
2301 1 17.590427027591275 24.640684176320452 17.62517994158137 0 0 0
2302 1 19.347623450663924 26.39549390848517 17.59155364888818 0 0 0
2303 1 19.3787789729199 24.682190817851993 19.345914529950768 0 0 0
2304 1 17.604786731384074 26.40823416261629 19.38851886307696 0 0 0
1907 1 22.892949022956067 24.640001637936244 15.794151563222984 0 0 0
1908 1 21.144260011349004 26.383057551499842 15.869122977509388 0 0 0
2305 1 21.149038545202128 24.67227173157816 17.575888672745883 0 0 0
2306 1 22.85015925247054 26.451044838296085 17.58077114188366 0 0 0
2307 1 22.884380368380477 24.633430662615492 19.35290320319042 0 0 0
2308 1 21.143827809303772 26.397679448261474 19.373724726429042 0 0 0
1911 1 26.373790916880587 24.63519510793563 15.90238251935786 0 0 0
1912 1 24.60824630654618 26.443730764778184 15.827122957773145 0 0 0
2309 1 24.639595047680366 24.644002252175532 17.60165484603556 0 0 0
2310 1 26.399022971465783 26.394787428030114 17.606385400678096 0 0 0
2311 1 26.459669658630247 24.601783546996316 19.348193576834916 0 0 0
2312 1 24.634138955398594 26.427013834988827 19.386118246971932 0 0 0
1915 1 29.930907267537705 24.608893346908797 15.809102854777567 0 0 0
1916 1 28.149151353184436 26.36490061731466 15.821809695108232 0 0 0
2313 1 28.09787719202386 24.64216100151581 17.624100517025706 0 0 0
2314 1 29.852346472091167 26.405529754350866 17.58600289711138 0 0 0
2315 1 29.850190492559147 24.636427728229435 19.425256692297083 0 0 0
2316 1 28.146744773368464 26.441497114570765 19.38094884251118 0 0 0
1919 1 33.475171981090774 24.620107054765043 15.813775083055528 0 0 0
1920 1 31.63744298058867 26.402984230029368 15.810737688097706 0 0 0
2317 1 31.67986453083834 24.635934289113536 17.618838183270434 0 0 0
2318 1 33.45755686006104 26.404661354537026 17.578817172413753 0 0 0
2319 1 33.45723573937571 24.648449380642134 19.381805448461762 0 0 0
2320 1 31.65090620674456 26.464442000360652 19.314278154300194 0 0 0
1923 1 1.704876295331832 28.16202410957716 15.84142661115736 0 0 0
1924 1 0.00046903319450946127 29.86162169743003 15.858824899276227 0 0 0
2321 1 0.03158671244785049 28.153011378006017 17.613482386510203 0 0 0
2322 1 1.7817559702825703 29.95376035026173 17.59147564489003 0 0 0
2323 1 1.7869695939101378 28.18396111118895 19.37086211440021 0 0 0
2324 1 0.026663882976282208 29.913635689992947 19.35734280890159 0 0 0
1928 1 3.4808947477032297 29.899593184568065 15.798474995695905 0 0 0
2325 1 3.4840192494143656 28.159946291443216 17.623890270083006 0 0 0
2328 1 3.5672051208016553 29.941032283581155 19.4033552051152 0 0 0
1927 1 5.254751376696495 28.12058694942469 15.84037116012765 0 0 0
2326 1 5.304678083823286 29.934219678086336 17.638113716071224 0 0 0
2327 1 5.251720575717953 28.16557852040852 19.363800959798215 0 0 0
1932 1 7.060479285418613 29.918577834797272 15.852245358811533 0 0 0
2329 1 7.0483288998936935 28.176764325542567 17.602945075187847 0 0 0
2332 1 7.016009062520133 29.928037363684265 19.365684009312584 0 0 0
1931 1 8.767974812800096 28.14913275885835 15.852927245458089 0 0 0
2330 1 8.773000900104313 29.95326088111922 17.646614826510618 0 0 0
2331 1 8.805576304161141 28.21075489003651 19.344612751576168 0 0 0
1936 1 10.567667697078727 29.90919251843928 15.83846006245343 0 0 0
2333 1 10.54188587323296 28.181621840707592 17.598028048448484 0 0 0
2336 1 10.622864601132338 29.909831792418473 19.32278706111241 0 0 0
1935 1 12.318205165154744 28.13437249253689 15.825247403130744 0 0 0
2334 1 12.264290744815249 29.880712678128585 17.598039286946324 0 0 0
2335 1 12.350302836003321 28.125859007435917 19.381188712923972 0 0 0
1940 1 14.087812859173889 29.989520310281836 15.854432109598644 0 0 0
2337 1 14.123437042163596 28.147591313063113 17.559869516334018 0 0 0
2340 1 14.134031218435469 29.899001520229753 19.337802403878715 0 0 0
1939 1 15.86742756706801 28.158036585745542 15.861636568595966 0 0 0
2338 1 15.85609683806682 29.897357097687753 17.636552426145503 0 0 0
2339 1 15.778202300601514 28.135443905621855 19.336907291676592 0 0 0
1943 1 19.345952315736533 28.1775435730182 15.826367615444799 0 0 0
1944 1 17.591801230924467 29.89859496368722 15.815150862604051 0 0 0
2341 1 17.591492441260378 28.138263452100666 17.631200283813754 0 0 0
2342 1 19.342270573937732 29.921071579516536 17.608533170905094 0 0 0
2343 1 19.34537646387114 28.118122523588628 19.349444846227225 0 0 0
2344 1 17.530339535578364 29.9356017062088 19.341935693483173 0 0 0
1947 1 22.86662292903472 28.129748765957903 15.800888347547813 0 0 0
1948 1 21.134298882036557 29.88754229002 15.81894484835937 0 0 0
2345 1 21.147765247091836 28.186540361983436 17.564101060762383 0 0 0
2346 1 22.846603384215307 29.95709539962245 17.596905435548482 0 0 0
2347 1 22.91680408727775 28.185221889969824 19.328364186366162 0 0 0
2348 1 21.09817404130112 29.95204295103448 19.402151799803068 0 0 0
1951 1 26.44496871791064 28.161726658067284 15.822796272516769 0 0 0
1952 1 24.6533883940979 29.926302202675807 15.826273408189094 0 0 0
2349 1 24.660396064441663 28.198499227666865 17.582946624802737 0 0 0
2350 1 26.458070587703173 29.947203046921857 17.574948429350048 0 0 0
2351 1 26.457821881452436 28.103715380923 19.30568990061041 0 0 0
2352 1 24.620254879314924 29.89345162162768 19.39189015573605 0 0 0
1955 1 29.913569821224133 28.133372853025307 15.827857509062099 0 0 0
1956 1 28.161282907018776 29.914244905969806 15.822515905400385 0 0 0
2353 1 28.138695816475526 28.182826645897524 17.64711061676738 0 0 0
2354 1 29.953595629586072 29.900549600925437 17.594217643641787 0 0 0
2355 1 29.950772045546643 28.165010366881607 19.369266288044425 0 0 0
2356 1 28.15793359279821 29.94477815478804 19.34359820993433 0 0 0
1959 1 33.466796405667594 28.134504000681968 15.857337276417773 0 0 0
1960 1 31.659618468322044 29.92596429272753 15.820483338782878 0 0 0
2357 1 31.641045504724595 28.16320777478243 17.609754538412414 0 0 0
2358 1 33.501190048259055 29.92987476142733 17.653463161141737 0 0 0
2359 1 33.426510078110034 28.171444099118645 19.419610896190736 0 0 0
2360 1 31.61215106773769 29.908982260804105 19.35341272987716 0 0 0
1963 1 1.7926222068276476 31.673249633549442 15.850732722220263 0 0 0
1964 1 35.16227430739592 33.489067090131805 15.827875129509442 -1 0 0
2361 1 0.05277070257145105 31.692695697952455 17.639027211625685 0 0 0
2362 1 1.7640181415267724 33.42975218462965 17.595486015418846 0 0 0
2363 1 1.7363285192770144 31.681032712426564 19.369752893813065 0 0 0
2364 1 35.19718565824576 33.4526252993351 19.37861193857487 -1 0 0
1968 1 3.534136721275959 33.48185963923109 15.851656751148433 0 0 0
2365 1 3.5295813511344565 31.651171004835117 17.596484325731083 0 0 0
2368 1 3.5030183583992858 33.42800353183772 19.335350553669578 0 0 0
1967 1 5.3074830190313 31.71479867834142 15.826205499925246 0 0 0
2366 1 5.257824310715926 33.42853984801523 17.520840555914113 0 0 0
2367 1 5.330189045464236 31.665544684198974 19.34992066035309 0 0 0
1972 1 7.059472895286742 33.45945222691008 15.813482270908908 0 0 0
2369 1 7.00957804774351 31.72988731058678 17.59361043353025 0 0 0
2372 1 7.028495690159047 33.43787777109529 19.382863725681204 0 0 0
1971 1 8.792819116701533 31.634179119662655 15.829941927019648 0 0 0
2370 1 8.783066886756439 33.44534270758028 17.6306378251058 0 0 0
2371 1 8.806584816087835 31.675232808976105 19.321977305984035 0 0 0
1976 1 10.580489645208303 33.4602841956491 15.870434882097786 0 0 0
2373 1 10.516938576994267 31.65703806975709 17.59510991447067 0 0 0
2376 1 10.589876227622389 33.44559265637369 19.360865374680458 0 0 0
1975 1 12.381120119370507 31.700897391915422 15.79943314456945 0 0 0
2374 1 12.314574335184327 33.44724948759514 17.60178483217159 0 0 0
2375 1 12.297901336310384 31.69851914972797 19.420094004370515 0 0 0
1980 1 14.057920016228056 33.49884967308668 15.842521248689149 0 0 0
2377 1 14.080694804771202 31.680348347555896 17.642876833226765 0 0 0
2380 1 14.064662353952501 33.421380283575836 19.407692564621435 0 0 0
1979 1 15.857126772648435 31.646806532402884 15.82452226143792 0 0 0
2378 1 15.806012077349532 33.4037887266581 17.60202838264608 0 0 0
2379 1 15.87687498212788 31.68197223378077 19.31748102721123 0 0 0
1983 1 19.408068382812925 31.648046567566368 15.87704551146662 0 0 0
1984 1 17.599427934866227 33.46255936505039 15.812113599297843 0 0 0
2381 1 17.617601760058523 31.72923685586768 17.59827363189187 0 0 0
2382 1 19.37202887799397 33.48013366445278 17.615285419917583 0 0 0
2383 1 19.32748512439099 31.720501423047452 19.376897906485535 0 0 0
2384 1 17.592155847142116 33.461507167424266 19.397284364810254 0 0 0
1987 1 22.88954052563139 31.633386873392976 15.803289565258755 0 0 0
1988 1 21.142194891608252 33.471551971786035 15.837950798820014 0 0 0
2385 1 21.162992859924202 31.65395233589408 17.617283052590327 0 0 0
2386 1 22.86147896883308 33.41699866896488 17.604468122357645 0 0 0
2387 1 22.868531783809182 31.67838933420902 19.362702900748317 0 0 0
2388 1 21.10783174351943 33.49214888296301 19.321430469030073 0 0 0
1991 1 26.416083825543453 31.731474727376412 15.875132922812414 0 0 0
1992 1 24.619531990951046 33.47400727501884 15.856892473906484 0 0 0
2389 1 24.62155013036569 31.642292586055056 17.566416546578825 0 0 0
2390 1 26.458737925315166 33.46397149207641 17.627979128166736 0 0 0
2391 1 26.40468318062377 31.690656855003205 19.407579961666816 0 0 0
2392 1 24.67023155919523 33.419610978535296 19.37809773764648 0 0 0
1995 1 29.886410857332212 31.681208390439846 15.851816726124294 0 0 0
1996 1 28.07226795035323 33.43260052731004 15.858540973483217 0 0 0
2393 1 28.155351220240007 31.672562626929867 17.57267760589651 0 0 0
2394 1 29.898131984015617 33.3645953914037 17.622028286997992 0 0 0
2395 1 29.939915842448194 31.72017649898418 19.381065914133714 0 0 0
2396 1 28.168384049899412 33.42479996243828 19.349812662370148 0 0 0
1999 1 33.47169971828078 31.638659432134126 15.871277103894718 0 0 0
2000 1 31.686213366304447 33.47087973285863 15.855680407859424 0 0 0
2397 1 31.690162257108224 31.670341764061032 17.63124976877028 0 0 0
2398 1 33.38908971297947 33.42635903736179 17.607780005970422 0 0 0
2399 1 33.48712532440019 31.6298950597885 19.342649699584577 0 0 0
2400 1 31.71185547179437 33.40531699241333 19.380844909211532 0 0 0
2401 1 0.022102033594305064 35.199129158995355 21.132635335709555 0 -1 0
2402 1 1.7553797202817316 1.7593695948225874 21.159763725456152 0 0 0
2403 1 1.7738549011858193 35.192339262055356 22.86928710516082 0 -1 0
2404 1 35.17816734053456 1.7800261611602672 22.914977148276545 -1 0 0
2441 1 35.18002744855627 3.487895615779642 21.181508558409 -1 0 0
2443 1 1.7442172897456099 3.5462881205352144 22.906582673894757 0 0 0
2405 1 3.5430839535134933 35.196607974197214 21.09849389462954 0 -1 0
2408 1 3.532741687713684 1.771823277413001 22.893363714706876 0 0 0
2445 1 3.518698970737277 3.5033121062711237 21.09770064979064 0 0 0
2406 1 5.30739279073902 1.7727183732668848 21.15001774806125 0 0 0
2407 1 5.279381666396273 0.06283548033623089 22.877175494654608 0 0 0
2447 1 5.261520236774851 3.503958150029758 22.903963796063085 0 0 0
2409 1 7.0225644942355085 35.20045304186432 21.12589609006264 0 -1 0
2412 1 7.042557675926126 1.7209993648804962 22.86658921205533 0 0 0
2449 1 7.070727251089232 3.545349610447245 21.168192297503154 0 0 0
2410 1 8.817002251679067 1.7399248006063612 21.09142120374942 0 0 0
2411 1 8.806705603674892 0.017466793174234174 22.862525492109423 0 0 0
2451 1 8.820084488508877 3.5346376045364667 22.90759391894946 0 0 0
2413 1 10.56222370003617 0.018941131570522053 21.108108732769484 0 0 0
2416 1 10.595806553817612 1.7706076115916944 22.8705558364658 0 0 0
2453 1 10.580156469217686 3.516792013166699 21.09156264164222 0 0 0
2414 1 12.30077722431043 1.7846271618644354 21.105571935799652 0 0 0
2415 1 12.386446507235608 35.19200430986704 22.868388911045578 0 -1 0
2455 1 12.290583631061676 3.5832537483333957 22.873417348568996 0 0 0
2417 1 14.097401603596326 35.18689766990982 21.127592869198867 0 -1 0
2420 1 14.088984838837506 1.7725526907534919 22.908942221903423 0 0 0
2457 1 14.091795070489178 3.545691193219214 21.12818257950848 0 0 0
2418 1 15.83670795297313 1.6820707818042397 21.104629484670866 0 0 0
2419 1 15.847869361122637 35.19797195948731 22.886287487959 0 -1 0
2459 1 15.837532320935768 3.4946867450587003 22.911081359383182 0 0 0
2421 1 17.594168517255962 0.008834569655798456 21.112405806090408 0 0 0
2422 1 19.337887707066677 1.7891238304434236 21.08661829798723 0 0 0
2423 1 19.356482533470064 35.17503484906838 22.89007128278562 0 -1 0
2424 1 17.63058244900581 1.7566238124513815 22.911392741431854 0 0 0
2461 1 17.57079531013349 3.542754780133176 21.125927872639892 0 0 0
2463 1 19.278486299532872 3.5139480939719334 22.89437443134208 0 0 0
2425 1 21.090992707342696 0.013235617633634946 21.12522229893658 0 0 0
2426 1 22.865055312543507 1.7667068147078557 21.06105155366325 0 0 0
2427 1 22.94342689253996 35.1406366765659 22.88679759968791 0 -1 0
2428 1 21.128308266263694 1.7545403775579331 22.927963212754825 0 0 0
2465 1 21.11658204854626 3.560756837934044 21.125031939628695 0 0 0
2467 1 22.831332459641693 3.516463455530905 22.874044389414593 0 0 0
2429 1 24.62732247448683 35.179171177743534 21.089200925984855 0 -1 0
2430 1 26.386594777895176 1.7990938239106666 21.087237457596135 0 0 0
2431 1 26.439224942480614 0.027152027750877092 22.887689073323543 0 0 0
2432 1 24.657756358846495 1.7793371101044193 22.949412650512514 0 0 0
2469 1 24.702209396664358 3.484793785926789 21.12612600947243 0 0 0
2471 1 26.35007880116599 3.528132948713397 22.875203933859023 0 0 0
2433 1 28.113361606787734 35.18996591044211 21.119977169012422 0 -1 0
2434 1 29.96310975257575 1.7609859370939343 21.08025233956204 0 0 0
2435 1 29.913577359648205 0.03375065847562317 22.868315758923853 0 0 0
2436 1 28.212137838217437 1.746152983453622 22.872346316223354 0 0 0
2473 1 28.16241785141418 3.505526129519545 21.138851149294158 0 0 0
2475 1 30.00969240110349 3.500798881822305 22.92008129513844 0 0 0
2437 1 31.71804443846028 35.17523602061609 21.174634046569608 0 -1 0
2438 1 33.42347439789773 1.750066577043659 21.09362797304028 0 0 0
2439 1 33.42979524548256 35.14706081045486 22.84387426422894 0 -1 0
2440 1 31.73282468309475 1.7394600826021047 22.909437059710683 0 0 0
2477 1 31.66157484224763 3.5368199583663382 21.1145923712181 0 0 0
2479 1 33.489456652009615 3.497774543801953 22.869775751192332 0 0 0
2442 1 1.6833744115787108 5.273400037167279 21.128270910032235 0 0 0
2444 1 35.20102717305877 5.251777084646099 22.852570541336096 -1 0 0
2481 1 0.002229642483229317 7.061157704437554 21.08469845061271 0 0 0
2483 1 1.7308490268914676 7.05207962033022 22.897638098524997 0 0 0
2448 1 3.5582291144626685 5.297813110264482 22.85718192030553 0 0 0
2485 1 3.5188977172740024 7.026690219661096 21.077238729568528 0 0 0
2446 1 5.2916837867487585 5.235039053761282 21.12156766674101 0 0 0
2487 1 5.27108671997305 7.034149789470205 22.86820705227646 0 0 0
2452 1 7.025265179512387 5.250408376735903 22.883775909517706 0 0 0
2489 1 7.04082899770479 7.0474101056725456 21.090590990992702 0 0 0
2450 1 8.769561946931717 5.215919860860847 21.1536215212305 0 0 0
2491 1 8.80690632429408 7.013535002317254 22.87453467227047 0 0 0
2456 1 10.56075484275672 5.291693524907324 22.881570039680597 0 0 0
2493 1 10.548396317319643 6.9911715625727195 21.158792614419035 0 0 0
2454 1 12.277278131489787 5.30734643368853 21.11775971808865 0 0 0
2495 1 12.28982494216063 7.051619752128283 22.86955392181591 0 0 0
2460 1 14.057829048053728 5.265270756382503 22.825751443861925 0 0 0
2497 1 14.085058903367367 7.035458986029862 21.10998732477521 0 0 0
2458 1 15.875214622133697 5.252363405373233 21.149777772698023 0 0 0
2499 1 15.881392509734962 7.049482677754561 22.894433169433096 0 0 0
2462 1 19.359523706585744 5.31323472543655 21.120765944267504 0 0 0
2464 1 17.632793105297917 5.2405388207961 22.862113896389044 0 0 0
2501 1 17.56613064996756 7.034195548990052 21.09419125431167 0 0 0
2503 1 19.320693565350435 7.056296143895675 22.874947934322584 0 0 0
2466 1 22.893252855137675 5.27022610796841 21.111824922497938 0 0 0
2468 1 21.10502106090326 5.247844061935807 22.817563222381683 0 0 0
2505 1 21.117951007216455 7.036632988776782 21.063092526222476 0 0 0
2507 1 22.84977682049082 7.00895111715057 22.93564115736991 0 0 0
2470 1 26.39090210025984 5.294699534520143 21.12817896774147 0 0 0
2472 1 24.616404050201762 5.276953857935651 22.864346913665447 0 0 0
2509 1 24.627000900042464 7.026908974577673 21.05909471365383 0 0 0
2511 1 26.420040281518098 7.063253605179838 22.90329059610257 0 0 0
2474 1 29.931238213314685 5.344041643949268 21.117668751389306 0 0 0
2476 1 28.187013213898467 5.289123012864792 22.906619246819126 0 0 0
2513 1 28.186158666612524 7.0425813050535435 21.146835070673692 0 0 0
2515 1 29.916307889437995 7.049810057350776 22.846134534931327 0 0 0
2478 1 33.40598092287877 5.285827329886582 21.106609775231608 0 0 0
2480 1 31.68908737601166 5.283641347250393 22.85767449205141 0 0 0
2517 1 31.70533645935016 7.057193255530464 21.11677701788758 0 0 0
2519 1 33.42926636233891 7.004074027832553 22.86238001564246 0 0 0
2482 1 1.728302203838503 8.809609882876313 21.088071124222402 0 0 0
2484 1 35.18340932531865 8.75417255452317 22.85449360691638 -1 0 0
2521 1 0.0044169984308129115 10.565941492366846 21.130007970665574 0 0 0
2523 1 1.7232614776621447 10.526912196263092 22.87729807335363 0 0 0
2488 1 3.495162867465905 8.769123430312652 22.88746971992305 0 0 0
2525 1 3.5349651327115303 10.551386427663424 21.102022369113342 0 0 0
2486 1 5.321962555326923 8.829011948875074 21.156688193266934 0 0 0
2527 1 5.2427841579673915 10.553038305026835 22.855166579441168 0 0 0
2492 1 7.0244301867027295 8.83047777250003 22.863993756191128 0 0 0
2529 1 7.079536789498356 10.560440190343892 21.093747336589253 0 0 0
2490 1 8.756520275737733 8.835576844950461 21.178121335028575 0 0 0
2531 1 8.849767438581575 10.55604501500259 22.907886046255534 0 0 0
2496 1 10.546488634919617 8.792892158290611 22.848574980057254 0 0 0
2533 1 10.543828256269059 10.600305322563926 21.097444693822503 0 0 0
2494 1 12.341459073114828 8.850612987076259 21.115036283575638 0 0 0
2535 1 12.331890365971832 10.589845065944875 22.873399378069667 0 0 0
2500 1 14.069886802938017 8.823501619434213 22.867176935364043 0 0 0
2537 1 14.113001743469342 10.589954438974429 21.126581373023512 0 0 0
2498 1 15.810510482394013 8.823105640488135 21.120135452004384 0 0 0
2539 1 15.82903139999678 10.5288435605436 22.858114672528625 0 0 0
2502 1 19.35069700157366 8.799165880524397 21.11649024928047 0 0 0
2504 1 17.572817926009673 8.821527745415308 22.844476662866114 0 0 0
2541 1 17.611800474534665 10.56387147785498 21.100870361133182 0 0 0
2543 1 19.401153587946332 10.566943175844331 22.879723850646936 0 0 0
2506 1 22.925821264352617 8.834058862386835 21.16309214462122 0 0 0
2508 1 21.126792883208477 8.78932867899709 22.865588917751595 0 0 0
2545 1 21.171336656618383 10.578829285832748 21.092757160532074 0 0 0
2547 1 22.86114211001225 10.553868921040719 22.837143908741506 0 0 0
2510 1 26.392809996729603 8.790028211173802 21.069076727590026 0 0 0
2512 1 24.64646306630551 8.789634576123035 22.900142844948576 0 0 0
2549 1 24.65988956889006 10.546660788156556 21.14567624798357 0 0 0
2551 1 26.415511464682393 10.543341265116231 22.869452951825423 0 0 0
2514 1 29.93866231067645 8.809382930557009 21.170720672499673 0 0 0
2516 1 28.161451148918978 8.80156990366909 22.900624422556003 0 0 0
2553 1 28.147347933086373 10.538583256904928 21.14984070259345 0 0 0
2555 1 29.905608569892152 10.547637490547626 22.885299997188536 0 0 0
2518 1 33.433844937462 8.82010524525946 21.153108404404946 0 0 0
2520 1 31.67111747718988 8.805968533887274 22.872802215433225 0 0 0
2557 1 31.64140901780281 10.545759195020922 21.110954990786908 0 0 0
2559 1 33.452926983085916 10.564881965632825 22.897336414594335 0 0 0
2522 1 1.7616866581011599 12.326029733993828 21.143722028576594 0 0 0
2524 1 35.17887871777102 12.298813452594302 22.857199820294202 -1 0 0
2561 1 35.16809956100663 14.076414002204338 21.157314784307445 -1 0 0
2563 1 1.8053891521031833 14.064234051277632 22.851281327628026 0 0 0
2528 1 3.5524134657526942 12.30417170276318 22.880774662866745 0 0 0
2565 1 3.5176450654754583 14.076913544959051 21.125132669058495 0 0 0
2526 1 5.242671120264455 12.285064227681318 21.18091294090829 0 0 0
2567 1 5.242508371052656 14.090283127507234 22.9224096863929 0 0 0
2532 1 7.034718292522613 12.321464975624504 22.860749078953038 0 0 0
2569 1 7.0166024059903975 14.078306307202084 21.076211623624456 0 0 0
2530 1 8.812660651537938 12.419487396396551 21.097832139444446 0 0 0
2571 1 8.831601175191143 14.072315984724701 22.894318257314364 0 0 0
2536 1 10.555052061163876 12.295419138963437 22.899336651731307 0 0 0
2573 1 10.528768476756627 14.099852471631959 21.095375594814307 0 0 0
2534 1 12.311902959672658 12.322034189407711 21.116240356251133 0 0 0
2575 1 12.284289944803074 14.107185320520765 22.88575501984089 0 0 0
2540 1 14.02523851227977 12.298636993119713 22.866277049952174 0 0 0
2577 1 14.112239985466191 14.103705873031956 21.109882921964427 0 0 0
2538 1 15.839990748539302 12.286901824886108 21.129708254201113 0 0 0
2579 1 15.825933563231285 14.115854052643167 22.86137427847809 0 0 0
2542 1 19.342574307875687 12.282273871958012 21.148779725917713 0 0 0
2544 1 17.599241345063398 12.330130877062224 22.848656656602696 0 0 0
2581 1 17.576303258967606 14.09649953376373 21.08165743538011 0 0 0
2583 1 19.35316817309717 14.102682997121091 22.94726190970143 0 0 0
2546 1 22.914285089000515 12.355062799836718 21.100608310184832 0 0 0
2548 1 21.029568272435707 12.328011367282793 22.914509476699337 0 0 0
2585 1 21.109906540359997 14.127173942734997 21.152087612220548 0 0 0
2587 1 22.90943025628342 14.064719688441263 22.900536693848135 0 0 0
2550 1 26.43281304852869 12.27631500446001 21.144639084506604 0 0 0
2552 1 24.626283116640106 12.329126646395007 22.866788300332626 0 0 0
2589 1 24.600347582855093 14.083006460009205 21.140766545327278 0 0 0
2591 1 26.40993283824809 14.047043881022832 22.917162411583362 0 0 0
2554 1 29.920343438091017 12.307834399789437 21.088035533889318 0 0 0
2556 1 28.216205516549433 12.328212061067335 22.905447678087214 0 0 0
2593 1 28.21047965351332 14.107101218221949 21.132902758040252 0 0 0
2595 1 29.918635578607876 14.069499678680813 22.902196911997816 0 0 0
2558 1 33.46979374416206 12.271913889513328 21.114743248264794 0 0 0
2560 1 31.684122150910355 12.404118294280087 22.890156375099263 0 0 0
2597 1 31.75751964099099 14.052041681762898 21.129483901581715 0 0 0
2599 1 33.44856520401241 14.098793422933225 22.95063383192829 0 0 0
2562 1 1.774252841073721 15.860520574088369 21.172989457915627 0 0 0
2564 1 0.030617680653101616 15.859093701575317 22.853513882249356 0 0 0
2601 1 0.012205719764494544 17.610306981229368 21.14952468162216 0 0 0
2602 1 1.7355811967058206 19.327519470491676 21.126893479286622 0 0 0
2603 1 1.7634152516349313 17.59592593318715 22.859380342497584 0 0 0
2604 1 35.167381793529195 19.375294782761603 22.85727825473915 -1 0 0
2568 1 3.5939604073192855 15.85035337105526 22.923719944172543 0 0 0
2605 1 3.512568137603819 17.572674343977006 21.16978638046806 0 0 0
2608 1 3.486212876806359 19.37290998321439 22.89538912545535 0 0 0
2566 1 5.292483652086884 15.858219981033214 21.08689164079782 0 0 0
2606 1 5.273716911162488 19.352026790671545 21.121144331721137 0 0 0
2607 1 5.2687333178049025 17.563605495260976 22.851166017800512 0 0 0
2572 1 7.027883913791333 15.845657916110753 22.876083388904675 0 0 0
2609 1 7.041248987212507 17.590715130827114 21.130640413268278 0 0 0
2612 1 7.050937184751935 19.32505541460412 22.896720900486805 0 0 0
2570 1 8.794209205995921 15.81763824128973 21.1835550596306 0 0 0
2610 1 8.848861246713748 19.34444997679236 21.14199979959756 0 0 0
2611 1 8.808643639850558 17.582660882957928 22.85692766063959 0 0 0
2576 1 10.593055439977821 15.877602674682533 22.86180882042873 0 0 0
2613 1 10.592421379840328 17.593444344525835 21.098184006163194 0 0 0
2616 1 10.53918824487895 19.41203359239513 22.89415593178056 0 0 0
2574 1 12.32784614114113 15.78369171413723 21.112459431550135 0 0 0
2614 1 12.262974736136494 19.342662819484406 21.104708731194584 0 0 0
2615 1 12.314108993350242 17.615836889676334 22.868466670022435 0 0 0
2580 1 14.112918176785062 15.828937186864433 22.846673492072522 0 0 0
2617 1 14.082406443760775 17.558679750588137 21.14076413949009 0 0 0
2620 1 14.097368888486676 19.38665546004598 22.882507863228966 0 0 0
2578 1 15.905769744993611 15.838260715255366 21.093769981356786 0 0 0
2618 1 15.845994662783134 19.331249708091175 21.113752838927574 0 0 0
2619 1 15.830921211481359 17.617451590099765 22.881612832333076 0 0 0
2582 1 19.390624306580953 15.890016950499643 21.146801106206116 0 0 0
2584 1 17.61008469249681 15.832478604939736 22.826896571991966 0 0 0
2621 1 17.59575080902312 17.602530490039904 21.105252065964685 0 0 0
2622 1 19.337237392761885 19.374181818736222 21.116640515994362 0 0 0
2623 1 19.372266914601 17.60624849244914 22.919779083012546 0 0 0
2624 1 17.602438758273404 19.36154058333954 22.848659114667594 0 0 0
2586 1 22.858605123598455 15.835856639422955 21.126872321566562 0 0 0
2588 1 21.13682720125186 15.901655893375573 22.887609690655182 0 0 0
2625 1 21.12776055939469 17.54947587785388 21.14648947653709 0 0 0
2626 1 22.939589169331644 19.37126734743364 21.11505792778647 0 0 0
2627 1 22.92055901008639 17.57633464906021 22.842832560367277 0 0 0
2628 1 21.092739447467768 19.35340732556629 22.901810185863535 0 0 0
2590 1 26.397098195204194 15.761393943045464 21.14568068331853 0 0 0
2592 1 24.658797614308163 15.847343579179393 22.88431336837912 0 0 0
2629 1 24.70582453753018 17.59808323396324 21.118156579099622 0 0 0
2630 1 26.39181585748149 19.38730211466486 21.097046063327145 0 0 0
2631 1 26.44816181717346 17.56333753584321 22.889834705072335 0 0 0
2632 1 24.65243088871443 19.3674615817601 22.916242212129937 0 0 0
2594 1 29.882040915220124 15.786665993923668 21.112286427731377 0 0 0
2596 1 28.168952677350422 15.793846722504718 22.8782451835142 0 0 0
2633 1 28.129967582429106 17.63588879723214 21.064715174192955 0 0 0
2634 1 29.924905545380486 19.357720514922132 21.102499911037082 0 0 0
2635 1 29.999819328360058 17.585150553650685 22.875844374316973 0 0 0
2636 1 28.1479015643708 19.348784622444697 22.907060992271756 0 0 0
2598 1 33.43643401357366 15.796038573670495 21.156305860803624 0 0 0
2600 1 31.692205815860287 15.844198164038554 22.88879696327412 0 0 0
2637 1 31.6703934889961 17.59481462184159 21.101123969687762 0 0 0
2638 1 33.44642850001642 19.334022991753848 21.108947172885784 0 0 0
2639 1 33.4203060202714 17.59954740384418 22.861650551133366 0 0 0
2640 1 31.633146771923567 19.339978627731476 22.924128981342538 0 0 0
2641 1 35.200364617034815 21.122630169520278 21.15859201682867 -1 0 0
2642 1 1.7397681350569836 22.868369089845256 21.107281204515903 0 0 0
2643 1 1.6947446570419438 21.12456491732523 22.90386863102764 0 0 0
2644 1 1.561033816699321e-05 22.89909414077126 22.88210090705251 0 0 0
2645 1 3.542736502982436 21.129006399417264 21.143754527265507 0 0 0
2648 1 3.516232023758117 22.897570856224064 22.92149518468277 0 0 0
2646 1 5.35635324816869 22.864359744577722 21.1030641458214 0 0 0
2647 1 5.277821291846975 21.10977335202147 22.842811385143573 0 0 0
2649 1 7.08713056622888 21.050081022189765 21.12518238241926 0 0 0
2652 1 7.06090546993529 22.883695472444973 22.874399077206196 0 0 0
2650 1 8.757928331887447 22.939332629332647 21.098593567347987 0 0 0
2651 1 8.798339663115867 21.13369976575736 22.853156201831144 0 0 0
2653 1 10.518460026197902 21.14054970059932 21.11180892280926 0 0 0
2656 1 10.549452101159147 22.852303840555564 22.842658811902837 0 0 0
2654 1 12.33978490916908 22.90327748182014 21.14794612462311 0 0 0
2655 1 12.31646172574988 21.148920126913286 22.84494068910166 0 0 0
2657 1 14.075407574023878 21.099137937053232 21.114959849362776 0 0 0
2660 1 14.038367502908244 22.83940506341054 22.87668374762548 0 0 0
2658 1 15.877956440145256 22.8575379682636 21.12175183983506 0 0 0
2659 1 15.809013603608076 21.137447882580336 22.91027651827617 0 0 0
2661 1 17.61959856066768 21.097508141749174 21.125067065634433 0 0 0
2662 1 19.355697440381288 22.9082547833664 21.098829939414028 0 0 0
2663 1 19.336631814752536 21.108359555222098 22.886647646556902 0 0 0
2664 1 17.60131018988795 22.90180184147597 22.912775810853848 0 0 0
2665 1 21.083103098992247 21.14018999183759 21.11940281382485 0 0 0
2666 1 22.910337772142807 22.88218764546217 21.088746969688266 0 0 0
2667 1 22.89224437994399 21.14043772648888 22.899473527127874 0 0 0
2668 1 21.096785526017687 22.88878911879747 22.85265622996762 0 0 0
2669 1 24.65736090626476 21.098631091201486 21.14798782109768 0 0 0
2670 1 26.445405709836205 22.919398795811013 21.093007014904607 0 0 0
2671 1 26.455453948904907 21.122781243144303 22.923658712213037 0 0 0
2672 1 24.65107874696343 22.859042111910423 22.883664738321098 0 0 0
2673 1 28.162667522787284 21.115436280928012 21.13081159971613 0 0 0
2674 1 29.897316520157354 22.91497604411141 21.068299433414975 0 0 0
2675 1 29.903143097796 21.153945665792598 22.84496323345904 0 0 0
2676 1 28.12530187578955 22.883108498502526 22.861434887823993 0 0 0
2677 1 31.63986871436644 21.164170305177258 21.055223413658776 0 0 0
2678 1 33.483262757931264 22.831516891375138 21.09627596905726 0 0 0
2679 1 33.43542643438977 21.1366922583208 22.853320438577963 0 0 0
2680 1 31.68808880517367 22.900455140819094 22.874328624135558 0 0 0
2681 1 35.18527119268838 24.616840605250612 21.15406576612492 -1 0 0
2682 1 1.7568627904365839 26.413694214488398 21.116993158708965 0 0 0
2683 1 1.7432961316241504 24.665205855742748 22.924452263716255 0 0 0
2684 1 35.18746459701959 26.432970082321937 22.84695244926952 -1 0 0
2685 1 3.5811940058608314 24.638318276229317 21.12365972840321 0 0 0
2688 1 3.5256984576599404 26.352202686313507 22.828815595493374 0 0 0
2686 1 5.315208504645088 26.376878678281855 21.089505531705658 0 0 0
2687 1 5.323221126274588 24.595774401252267 22.910313612789658 0 0 0
2689 1 7.033401066097275 24.645045430554585 21.125781311201102 0 0 0
2692 1 7.050899916134749 26.368717711953416 22.854323848422755 0 0 0
2690 1 8.809235724564115 26.410076425292875 21.121080094556774 0 0 0
2691 1 8.793878299920346 24.628088153365407 22.885988211533384 0 0 0
2693 1 10.576556981642947 24.60799609046884 21.1652936166963 0 0 0
2696 1 10.58237208844971 26.437432282200582 22.867176107362596 0 0 0
2694 1 12.282580800650045 26.404099440780055 21.097331245394283 0 0 0
2695 1 12.307414368250786 24.662347701888915 22.887344481154514 0 0 0
2697 1 14.080745415343184 24.652424105833166 21.111538727877296 0 0 0
2700 1 14.065739387019146 26.38882570918511 22.9468806564823 0 0 0
2698 1 15.855183937054786 26.404263457581983 21.116227302551714 0 0 0
2699 1 15.79533387663453 24.604936802760466 22.95022947616269 0 0 0
2701 1 17.58604326391509 24.64551854340248 21.088888102278148 0 0 0
2702 1 19.34338348698818 26.362452225557266 21.19311451403021 0 0 0
2703 1 19.389012152109444 24.624752940430444 22.899357804494166 0 0 0
2704 1 17.59157462980831 26.38457249690617 22.94687634732234 0 0 0
2705 1 21.07185439498946 24.622091360620313 21.10414448932768 0 0 0
2706 1 22.876631180503107 26.447336929705518 21.118764458112363 0 0 0
2707 1 22.89445612294593 24.68723993525238 22.86387055750934 0 0 0
2708 1 21.106240579933125 26.414184807172685 22.87922110663108 0 0 0
2709 1 24.66771445143817 24.624370339199192 21.144042913300826 0 0 0
2710 1 26.390865772923238 26.400714251386123 21.09537303941961 0 0 0
2711 1 26.403709869608146 24.637178478849137 22.92111445237065 0 0 0
2712 1 24.620968521326176 26.47509545535669 22.896819280746964 0 0 0
2713 1 28.205869793317408 24.675206878902735 21.11545503597722 0 0 0
2714 1 29.889820095098173 26.389546752674036 21.161743196518444 0 0 0
2715 1 29.90312104185875 24.662115021915014 22.909892608233456 0 0 0
2716 1 28.164003511555876 26.407359003458872 22.88792243051889 0 0 0
2717 1 31.651651108999065 24.667054841810934 21.15532535681536 0 0 0
2718 1 33.391885543653274 26.396990801284936 21.122369542380653 0 0 0
2719 1 33.44403955865207 24.632205960864272 22.887496185191164 0 0 0
2720 1 31.65162692106783 26.377610611080154 22.8636460448486 0 0 0
2721 1 0.010587847950935017 28.177197424378786 21.102639436002573 0 0 0
2722 1 1.7968198094851706 29.986600916019235 21.113755260224785 0 0 0
2723 1 1.779945886351008 28.152274690389817 22.896863926187354 0 0 0
2724 1 0.00251735738025994 29.87112072172573 22.84304281576613 0 0 0
2725 1 3.5039248039970725 28.16282851180671 21.171301636834933 0 0 0
2728 1 3.5192361772004266 29.92002948824332 22.902104186912386 0 0 0
2726 1 5.227696738407281 29.947683990849058 21.128103780702723 0 0 0
2727 1 5.272500817536691 28.113144015010672 22.879278090741895 0 0 0
2729 1 7.042041121626254 28.15140388159338 21.171962402175136 0 0 0
2732 1 7.027024307812194 29.947486025767223 22.875032999054355 0 0 0
2730 1 8.766857261397385 29.891770329370704 21.167123166811457 0 0 0
2731 1 8.813410075240752 28.141114853500465 22.855285601319597 0 0 0
2733 1 10.568236103829145 28.164713070619293 21.149519128570788 0 0 0
2736 1 10.544115011752512 29.89328019831383 22.871474007375152 0 0 0
2734 1 12.322632883904575 29.87744142424774 21.11832307821816 0 0 0
2735 1 12.369886227973058 28.194480177184133 22.901972355428047 0 0 0
2737 1 14.067002260629458 28.147002208745914 21.102253106810924 0 0 0
2740 1 14.089411740980578 29.91964914001821 22.892859856259108 0 0 0
2738 1 15.813113136891497 29.896983204507944 21.092561581700195 0 0 0
2739 1 15.850665155598552 28.162622447656094 22.875880695732317 0 0 0
2741 1 17.593372822081708 28.1807030807818 21.11323548692189 0 0 0
2742 1 19.372693123224067 29.929551576063105 21.114318980895266 0 0 0
2743 1 19.351739753117734 28.199377184711196 22.897487991329978 0 0 0
2744 1 17.633479305471766 29.95666970577357 22.840400469018544 0 0 0
2745 1 21.13541615176114 28.13230868521588 21.153950864249744 0 0 0
2746 1 22.8635242005544 29.947437335361197 21.08254336897247 0 0 0
2747 1 22.86480783897333 28.160226238487976 22.885462401864544 0 0 0
2748 1 21.115027677089856 29.903260556965098 22.88789355104153 0 0 0
2749 1 24.583693693462962 28.168914955202013 21.135584461840008 0 0 0
2750 1 26.360188161480778 29.90839692183147 21.09808176228715 0 0 0
2751 1 26.38139117677087 28.173127229641654 22.86403091002016 0 0 0
2752 1 24.65843529460227 29.90805934418289 22.86665791276843 0 0 0
2753 1 28.14379265400291 28.168313774481433 21.138120096376127 0 0 0
2754 1 29.936927291729006 29.913754528142476 21.110339085403098 0 0 0
2755 1 29.94818753579596 28.166028913551035 22.824929518561095 0 0 0
2756 1 28.215797480404998 29.92169027062992 22.89310709348543 0 0 0
2757 1 31.733833494569694 28.160757824358818 21.11880284038383 0 0 0
2758 1 33.49211019850448 29.963289488695427 21.131692439053275 0 0 0
2759 1 33.463138673744574 28.1445235023951 22.892447001891643 0 0 0
2760 1 31.67913798220105 29.95548923190911 22.87349742085795 0 0 0
2761 1 0.06480524115000123 31.6965511150984 21.09431944296763 0 0 0
2762 1 1.7005446754935847 33.44946941710157 21.123511582232165 0 0 0
2763 1 1.7497603101764665 31.72224232674949 22.86917092957987 0 0 0
2764 1 35.18967143812021 33.434379159623255 22.857794172106463 -1 0 0
2765 1 3.4991435736369847 31.69638624120371 21.118199145190324 0 0 0
2768 1 3.504523637989486 33.475020067999836 22.858211772815267 0 0 0
2766 1 5.20524500559638 33.45749625137752 21.162566202262408 0 0 0
2767 1 5.323772625531956 31.659648954486382 22.888187767626235 0 0 0
2769 1 7.0608040959910445 31.66363410935525 21.064521142271 0 0 0
2772 1 7.072411633844971 33.47242176813823 22.90324591768415 0 0 0
2770 1 8.77129551757007 33.44317189496651 21.123177206715937 0 0 0
2771 1 8.786291169106482 31.67867612087873 22.91389721454257 0 0 0
2773 1 10.560738160292827 31.63555548447437 21.106649440178774 0 0 0
2776 1 10.585292970540339 33.45027683508227 22.904885242471266 0 0 0
2774 1 12.311974737354696 33.399860457989035 21.151064567790364 0 0 0
2775 1 12.376692073878665 31.70172946185937 22.858547815549727 0 0 0
2777 1 14.073592790215683 31.65491465800283 21.0680633081246 0 0 0
2780 1 14.053626783821311 33.47268435734804 22.875025333545306 0 0 0
2778 1 15.82493100690548 33.43761052768338 21.147068039196114 0 0 0
2779 1 15.866427128507107 31.71963502269121 22.864732710673714 0 0 0
2781 1 17.620840377430415 31.664500404754595 21.071125360029967 0 0 0
2782 1 19.392983067631803 33.421675719840984 21.099784563726985 0 0 0
2783 1 19.335860588935166 31.635088377696817 22.91319513645612 0 0 0
2784 1 17.580683096010862 33.49260307196953 22.852164391181258 0 0 0
2785 1 21.152893753313297 31.653673149322618 21.105854023776473 0 0 0
2786 1 22.93054863908648 33.45511126438441 21.14361134056489 0 0 0
2787 1 22.852070692745244 31.705246108745833 22.91334953559313 0 0 0
2788 1 21.085612677394877 33.40215618645491 22.843978699495555 0 0 0
2789 1 24.64412664482184 31.662714817704785 21.10433510950775 0 0 0
2790 1 26.41962296539529 33.44171816445928 21.143178189673446 0 0 0
2791 1 26.38481738388393 31.6968009624182 22.92688575442044 0 0 0
2792 1 24.623501439023894 33.44014211126721 22.880440977371908 0 0 0
2793 1 28.142137872544033 31.632831857972043 21.09196977625496 0 0 0
2794 1 29.933228018111926 33.44988670531202 21.051387525772704 0 0 0
2795 1 29.94240821869445 31.665745812527096 22.888706530009134 0 0 0
2796 1 28.13925655601756 33.493867627576655 22.859452792673313 0 0 0
2797 1 31.693499207192673 31.649009533247934 21.05952367715945 0 0 0
2798 1 33.37733536434993 33.448010728570466 21.077582192445426 0 0 0
2799 1 33.414009779688044 31.66164867581886 22.872274495907483 0 0 0
2800 1 31.666740025373507 33.43537228227066 22.90290390015014 0 0 0
2801 1 0.017567237014665324 0.02101460534121235 24.685919923614165 0 0 0
2802 1 1.7330773633563803 1.7389282521389515 24.698395873948577 0 0 0
2803 1 1.76753681660238 35.17472680566123 26.389003516027262 0 -1 0
2804 1 35.19929338386155 1.7098380703969267 26.405623203193286 -1 0 0
2841 1 35.1808346211559 3.5191541565587428 24.649351440465328 -1 0 0
2843 1 1.7265362268577633 3.541355280130595 26.40889405614354 0 0 0
2805 1 3.503483807962393 35.201559821450616 24.632183731792047 0 -1 0
2808 1 3.5155354156641336 1.7226014022870073 26.442987913181298 0 0 0
2845 1 3.5390810063945177 3.5096622759510416 24.62096925470255 0 0 0
2806 1 5.335665173192411 1.7517049293277647 24.61144931422735 0 0 0
2807 1 5.252623562528725 0.009141805832756983 26.39240754300851 0 0 0
2847 1 5.305216782540581 3.486689829547647 26.40205036990049 0 0 0
2809 1 7.023345196630375 0.009646849604887132 24.660291812171963 0 0 0
2812 1 7.010977437370423 1.7463245525099422 26.400110581315396 0 0 0
2849 1 7.050664838521113 3.517152748733348 24.65832267182767 0 0 0
2810 1 8.835517859705945 1.7619320203368485 24.605714445050396 0 0 0
2811 1 8.803441578615944 0.01490189472844796 26.422156580293937 0 0 0
2851 1 8.768040207595998 3.5002029186858445 26.420754006186904 0 0 0
2813 1 10.54095879099997 35.159776512078466 24.652024124612563 0 -1 0
2816 1 10.524835237451931 1.7853854511127187 26.391216733570566 0 0 0
2853 1 10.53734420427494 3.5805610449557506 24.643174329377494 0 0 0
2814 1 12.28652429787167 1.8003409974811708 24.64423901742354 0 0 0
2815 1 12.31204505719764 0.004078854178757524 26.383567289540537 0 0 0
2855 1 12.308072640071574 3.5906420060190984 26.377606473831577 0 0 0
2817 1 14.083717998944065 0.030188999763316127 24.644582689212122 0 0 0
2820 1 14.055068045693325 1.69682576772319 26.38422991849261 0 0 0
2857 1 14.103178770268896 3.537068116878211 24.668060329847133 0 0 0
2818 1 15.84721463888764 1.7532082464675116 24.630537612857626 0 0 0
2819 1 15.845095107034592 0.015361668193892196 26.37592831506049 0 0 0
2859 1 15.889948181635148 3.490416976174685 26.42812119624327 0 0 0
2821 1 17.586340988051564 35.17392990670352 24.653039299151562 0 -1 0
2822 1 19.361249546847034 1.712421943609918 24.666063534831537 0 0 0
2823 1 19.338898776556952 0.009309797796636534 26.377738184366766 0 0 0
2824 1 17.616470478625022 1.7323549189806378 26.44178490429764 0 0 0
2861 1 17.57082414297359 3.5220015583676387 24.674616751589543 0 0 0
2863 1 19.360723132862393 3.520708725427623 26.40222803052413 0 0 0
2825 1 21.177598418733357 0.03793212627941775 24.641538456418072 0 0 0
2826 1 22.82792040203839 1.7617488023399468 24.578489189829696 0 0 0
2827 1 22.871479529738117 35.189263828800506 26.420148847815742 0 -1 0
2828 1 21.173109700071503 1.734787274727127 26.419055830761092 0 0 0
2865 1 21.113288237048465 3.504966052515497 24.6486424400959 0 0 0
2867 1 22.874097335079863 3.560696120243258 26.394235352754954 0 0 0
2829 1 24.67626937225462 0.0520251619575454 24.651300936122656 0 0 0
2830 1 26.37795652472879 1.7486194149501373 24.648425214626855 0 0 0
2831 1 26.394053410041725 35.198535146756676 26.33806633729227 0 -1 0
2832 1 24.6953601246659 1.7384707714019485 26.387894053377657 0 0 0
2869 1 24.619421053638852 3.530221639923987 24.675639025862132 0 0 0
2871 1 26.39059635547241 3.5622416146831184 26.401174414084448 0 0 0
2833 1 28.186428641970146 0.0009398568537155308 24.614819096896305 0 0 0
2834 1 29.941009729246524 1.7502291968189991 24.65013589763149 0 0 0
2835 1 29.949904606360732 35.15393378761647 26.397823351400334 0 -1 0
2836 1 28.146569906990592 1.756812105812552 26.367852463805576 0 0 0
2873 1 28.20627728446674 3.521757663872775 24.63609607018858 0 0 0
2875 1 29.896496389732572 3.476862340815776 26.400221492922082 0 0 0
2837 1 31.66766739130592 35.19414202326454 24.658327851151746 0 -1 0
2838 1 33.45576715264143 1.7517939511029579 24.615643630151784 0 0 0
2839 1 33.43181168025483 35.167284548288045 26.376909304392598 0 -1 0
2840 1 31.66062159856383 1.80903725506947 26.362797918076364 0 0 0
2877 1 31.686524809126936 3.5592288438457778 24.622049220754935 0 0 0
2879 1 33.44764925732425 3.5212974882750427 26.33572493775231 0 0 0
2842 1 1.7762025882759256 5.274764883876455 24.635130834359305 0 0 0
2844 1 0.016941279755915428 5.307042656516267 26.401359592553963 0 0 0
2881 1 0.014459999479384034 6.949819147473827 24.617221950788696 0 0 0
2883 1 1.7437720819882816 7.0755662729489135 26.42489789276402 0 0 0
2848 1 3.5160315553872445 5.282112584633634 26.38487286305135 0 0 0
2885 1 3.5082956132946865 7.068313591057132 24.64176559098513 0 0 0
2846 1 5.302636773527067 5.220991643743933 24.624044206490197 0 0 0
2887 1 5.253732837020341 7.036380101849569 26.40315805116899 0 0 0
2852 1 7.048884998410418 5.258684033104814 26.350285459854685 0 0 0
2889 1 7.036288395421325 7.025536120191872 24.658404760930082 0 0 0
2850 1 8.79006125398116 5.273113264181116 24.62876859222828 0 0 0
2891 1 8.811874369354973 7.0709765077838505 26.40051154967545 0 0 0
2856 1 10.560047048574157 5.274517251540674 26.403238463780568 0 0 0
2893 1 10.598711311896416 6.9998062469758064 24.664221446003626 0 0 0
2854 1 12.362868836889334 5.313714400643552 24.655973229280384 0 0 0
2895 1 12.287120306095563 7.011816863317859 26.40050383244802 0 0 0
2860 1 14.042036444738915 5.312758289615782 26.448825542172486 0 0 0
2897 1 14.000353124275597 7.079559762088971 24.643964560873194 0 0 0
2858 1 15.887061510836576 5.292117933373324 24.642826730538392 0 0 0
2899 1 15.872477415020944 7.02048370565654 26.402249938722502 0 0 0
2862 1 19.397617792682205 5.253717407239361 24.609347558036276 0 0 0
2864 1 17.619018604174585 5.270530266576697 26.435033668667113 0 0 0
2901 1 17.628483557987042 7.081537631563385 24.656341902213516 0 0 0
2903 1 19.396901308637812 7.029633294073549 26.40894216225551 0 0 0
2866 1 22.851046696063968 5.319904261912732 24.648242604774083 0 0 0
2868 1 21.13184144490078 5.334273998305078 26.38100368906075 0 0 0
2905 1 21.146680339613187 7.02050431621039 24.641507191629977 0 0 0
2907 1 22.881371159625175 7.111768592819224 26.417526372341886 0 0 0
2870 1 26.421002682672388 5.2111126815232085 24.624698748859945 0 0 0
2872 1 24.615242589266906 5.328736689088864 26.41227800999223 0 0 0
2909 1 24.656436216707288 7.077326404886778 24.630853640796946 0 0 0
2911 1 26.42849515396773 6.999268954548359 26.41547765254397 0 0 0
2874 1 29.931837128658092 5.2286010943865655 24.693570775894123 0 0 0
2876 1 28.16370848217438 5.255836753355957 26.42055364056256 0 0 0
2913 1 28.179257186014393 7.00352968564729 24.60960799319539 0 0 0
2915 1 29.95316100656215 7.018239787767248 26.382736457427995 0 0 0
2878 1 33.39286582307324 5.2619868308911695 24.650762519247007 0 0 0
2880 1 31.69038605625126 5.248424662873251 26.409110714776112 0 0 0
2917 1 31.704820859253083 7.0444478207063685 24.642668574632356 0 0 0
2919 1 33.440596427902186 7.071941879289917 26.355104923503063 0 0 0
2882 1 1.7566017638330582 8.754899195429298 24.650395594941806 0 0 0
2884 1 35.19934567076775 8.765336571154814 26.465461995868058 -1 0 0
2921 1 35.175245137241674 10.589718302209834 24.621190069421516 -1 0 0
2923 1 1.7846443599202308 10.580787221679257 26.442441231485947 0 0 0
2888 1 3.5060016833408776 8.780572583956596 26.408443887562765 0 0 0
2925 1 3.586506341972855 10.574115432682218 24.64041102746749 0 0 0
2886 1 5.260020651317754 8.83102564403058 24.60128438939864 0 0 0
2927 1 5.289282704739933 10.564077514055882 26.35568842880563 0 0 0
2892 1 7.035341273670594 8.796555012536738 26.394418956644053 0 0 0
2929 1 6.96318932470878 10.581894569595478 24.64582579181773 0 0 0
2890 1 8.806811609465154 8.792274887717237 24.63222129818963 0 0 0
2931 1 8.808593811349573 10.551699607777275 26.38008975887063 0 0 0
2896 1 10.568520455766686 8.827867366776042 26.438689008967273 0 0 0
2933 1 10.578744171171842 10.557921853174882 24.65957867469557 0 0 0
2894 1 12.308727786036993 8.794904832045264 24.63227210305275 0 0 0
2935 1 12.305928370901597 10.584994942431505 26.38307046639324 0 0 0
2900 1 14.101910963698188 8.804036662682876 26.36328871478117 0 0 0
2937 1 14.015533791697342 10.559131896285269 24.658549994430512 0 0 0
2898 1 15.805803613788655 8.74690334197155 24.63625705183926 0 0 0
2939 1 15.860148787925336 10.587699964008568 26.407196110613295 0 0 0
2902 1 19.40361173522389 8.779647546696516 24.635145744879274 0 0 0
2904 1 17.612797984315637 8.783360995225824 26.364649091983118 0 0 0
2941 1 17.600497193430183 10.503313374879523 24.642139599316828 0 0 0
2943 1 19.353577183225127 10.531652287595154 26.39302628831345 0 0 0
2906 1 22.829017426581274 8.754118840196167 24.60723508491724 0 0 0
2908 1 21.11723908612824 8.852069652495828 26.379895216554058 0 0 0
2945 1 21.121117587057604 10.537899580876083 24.64334348834146 0 0 0
2947 1 22.862450916197712 10.564256244822227 26.406608108213792 0 0 0
2910 1 26.482865096178493 8.78239194543055 24.59636134315636 0 0 0
2912 1 24.62845780791909 8.77819617850513 26.41969403550803 0 0 0
2949 1 24.643845947291865 10.541178100213545 24.57881485548185 0 0 0
2951 1 26.40101350840339 10.568908463340298 26.4313754224621 0 0 0
2914 1 29.929178881240684 8.76220562977351 24.647874511858934 0 0 0
2916 1 28.187302461603895 8.794508484023144 26.35649154433537 0 0 0
2953 1 28.16370914504989 10.609848798281721 24.70841470766725 0 0 0
2955 1 29.950979297389424 10.591994796799012 26.432768319394018 0 0 0
2918 1 33.46279983028791 8.774042551517777 24.634410735575493 0 0 0
2920 1 31.672973373177097 8.822473356372232 26.41309851839506 0 0 0
2957 1 31.674610951074897 10.486842661945968 24.642129582801648 0 0 0
2959 1 33.411014601119206 10.599081137296617 26.37078739318284 0 0 0
2922 1 1.730954239958625 12.315335525600817 24.63786537496092 0 0 0
2924 1 0.026390977363083462 12.263079713684167 26.38996876191907 0 0 0
2961 1 0.03267456659975422 14.05161966650576 24.659227840592493 0 0 0
2963 1 1.7967855101589325 14.07705865114808 26.433633491382924 0 0 0
2928 1 3.5561243977217893 12.324889159569013 26.41071140867399 0 0 0
2965 1 3.546514341953559 14.050165006122308 24.593925386677338 0 0 0
2926 1 5.293699523115859 12.313490731342286 24.660757886233924 0 0 0
2967 1 5.330899570898189 14.06833742922988 26.431606775672183 0 0 0
2932 1 7.0697939894151585 12.291312219001073 26.385544757926972 0 0 0
2969 1 7.045090767855606 14.093506000321316 24.61885155972648 0 0 0
2930 1 8.775679186090565 12.298311184585426 24.588408613671064 0 0 0
2971 1 8.85287257651494 14.074134265567535 26.4218924020076 0 0 0
2936 1 10.51047015742843 12.271620255176972 26.39486786176225 0 0 0
2973 1 10.563048785088563 14.054078043981209 24.660412041977892 0 0 0
2934 1 12.261976895736108 12.299115452170357 24.602509476832385 0 0 0
2975 1 12.296469509374583 14.026830264905351 26.438996325918414 0 0 0
2940 1 14.02671340323518 12.278481314893106 26.446762271946977 0 0 0
2977 1 14.086880107864646 14.080181103441955 24.678378324309197 0 0 0
2938 1 15.807444407136256 12.306027786514196 24.629030347050502 0 0 0
2979 1 15.830575690694841 14.117506929029318 26.38941178702008 0 0 0
2942 1 19.348150263982344 12.297998062997937 24.661089781542355 0 0 0
2944 1 17.588984679910638 12.323952029901296 26.464047454995068 0 0 0
2981 1 17.540798435194002 14.047618169596298 24.66129130173043 0 0 0
2983 1 19.36355520243399 14.059754266454364 26.379281589259826 0 0 0
2946 1 22.8598188768402 12.312626282948989 24.60688969107758 0 0 0
2948 1 21.167042573755452 12.279298950084733 26.38903935237618 0 0 0
2985 1 21.11799785175628 14.09105790976592 24.663945004461823 0 0 0
2987 1 22.883558783410606 14.07243012299711 26.36340623332079 0 0 0
2950 1 26.39981957914584 12.309382108421442 24.658727902452416 0 0 0
2952 1 24.63186156028599 12.346342348647333 26.403879869489277 0 0 0
2989 1 24.608642806904687 14.071651746807447 24.69311114062977 0 0 0
2991 1 26.397377625344472 14.067035139398623 26.375282595386338 0 0 0
2954 1 29.91970052631556 12.304844220175225 24.627731533242347 0 0 0
2956 1 28.21847788967347 12.299780624519027 26.366457930543987 0 0 0
2993 1 28.116442558625106 14.112561207645262 24.657696492953395 0 0 0
2995 1 29.943232090476872 14.056093382290126 26.38408671589892 0 0 0
2958 1 33.482523902055526 12.289005473046103 24.65653063061392 0 0 0
2960 1 31.649363106912798 12.346239627521514 26.43484455694718 0 0 0
2997 1 31.638974075303853 14.049514235229882 24.598481000389977 0 0 0
2999 1 33.41323637753582 14.107599389801951 26.408742493558886 0 0 0
2962 1 1.7637318368634065 15.913436258204632 24.631930809450754 0 0 0
2964 1 0.035168856923218514 15.810550841472866 26.400730790874917 0 0 0
3001 1 0.02456524736625213 17.58784270813584 24.650631927054555 0 0 0
3002 1 1.7292935673237768 19.368572724508475 24.65417716287621 0 0 0
3003 1 1.7550314059027843 17.5768528871938 26.394933547932524 0 0 0
3004 1 35.1871259959018 19.36898165172258 26.362626512759697 -1 0 0
2968 1 3.4963639249478984 15.852174871629611 26.418109041373583 0 0 0
3005 1 3.5579713133776973 17.557683419284576 24.675534976625464 0 0 0
3008 1 3.515007610291078 19.304377933482616 26.428940033970427 0 0 0
2966 1 5.272692671535404 15.81627446851212 24.685651220659867 0 0 0
3006 1 5.273961077240351 19.37951566758324 24.608042443481715 0 0 0
3007 1 5.29043738778216 17.589477574344276 26.42812465585649 0 0 0
2972 1 7.013125357563988 15.756918316124034 26.412887847783878 0 0 0
3009 1 7.023491416102194 17.59702201380195 24.602518630929556 0 0 0
3012 1 7.074831933173241 19.352713062963048 26.373698914702608 0 0 0
2970 1 8.787020720464772 15.864680096582806 24.625651069334907 0 0 0
3010 1 8.834616623126525 19.324054552528487 24.670314864944537 0 0 0
3011 1 8.767903656096534 17.611550747419642 26.396998267771455 0 0 0
2976 1 10.547907809858366 15.8137755918911 26.37917957838572 0 0 0
3013 1 10.583710991599883 17.609742110644223 24.598305055869254 0 0 0
3016 1 10.56518756267527 19.36909834308979 26.396395975602882 0 0 0
2974 1 12.317062833966578 15.810819421177749 24.66078585817499 0 0 0
3014 1 12.346888081839374 19.38221694282636 24.6415973995804 0 0 0
3015 1 12.29764779529041 17.60893491220139 26.3455342861245 0 0 0
2980 1 14.088453992634562 15.851913627751461 26.424728245792526 0 0 0
3017 1 14.106669982690708 17.548672930694593 24.71533725120231 0 0 0
3020 1 14.116629405197951 19.342126048537278 26.40297410735426 0 0 0
2978 1 15.870297692192029 15.845517932038176 24.632912773166673 0 0 0
3018 1 15.854505313523815 19.326060842892897 24.63625542753103 0 0 0
3019 1 15.801840455781118 17.583345674797037 26.40592118992543 0 0 0
2982 1 19.36564427402987 15.856344767130732 24.69945290360629 0 0 0
2984 1 17.61903591674772 15.848937279071325 26.426406874982405 0 0 0
3021 1 17.57499441375264 17.58047550591576 24.654859250586842 0 0 0
3022 1 19.38371679256524 19.332513535993677 24.648777937516975 0 0 0
3023 1 19.307452359625785 17.576288423626394 26.44208716704678 0 0 0
3024 1 17.572897103679857 19.358580043724768 26.412456720636673 0 0 0
2986 1 22.88242949843757 15.824064788892255 24.600533703559663 0 0 0
2988 1 21.10195843997893 15.832697044522511 26.41766060239782 0 0 0
3025 1 21.145665323708872 17.609302349542784 24.591922669022622 0 0 0
3026 1 22.86050473483473 19.38285091433669 24.669260117186926 0 0 0
3027 1 22.860786561414336 17.60085070350601 26.402366064201743 0 0 0
3028 1 21.085232340213025 19.315110954340298 26.386950370032835 0 0 0
2990 1 26.41639192731155 15.861909910561748 24.572585387012 0 0 0
2992 1 24.638454564816215 15.854389677707477 26.372526154477725 0 0 0
3029 1 24.619815571713985 17.661244066738433 24.64916149827949 0 0 0
3030 1 26.375767488659967 19.370448969599348 24.61384046923204 0 0 0
3031 1 26.37113247841962 17.60567597148515 26.394368717095873 0 0 0
3032 1 24.660103434387977 19.30024744209668 26.38863759298237 0 0 0
2994 1 29.986635934535887 15.862051858180719 24.654546196688162 0 0 0
2996 1 28.156578560486082 15.85574426752598 26.392154029858947 0 0 0
3033 1 28.149759639533215 17.622443831967882 24.568589974442617 0 0 0
3034 1 29.874957328063957 19.408516966207745 24.62916008656954 0 0 0
3035 1 29.964042062193744 17.647812080660298 26.364087418523887 0 0 0
3036 1 28.218565680456244 19.339604276606195 26.40301660256544 0 0 0
2998 1 33.42617010974238 15.820103746974226 24.66468398009602 0 0 0
3000 1 31.6804754376625 15.845448928252031 26.401426088111794 0 0 0
3037 1 31.728307658773023 17.627775369357106 24.650678520522597 0 0 0
3038 1 33.44230637031857 19.385268266732623 24.648677607523638 0 0 0
3039 1 33.45821753108224 17.563880255520143 26.387409968813778 0 0 0
3040 1 31.70700933792339 19.401772739251328 26.428742702793592 0 0 0
3041 1 35.19388973482526 21.139372379246065 24.62175831089375 -1 0 0
3042 1 1.7463971912064782 22.881873029368617 24.641903926713784 0 0 0
3043 1 1.7858854116421317 21.117276197075416 26.39790681752318 0 0 0
3044 1 -0.0006956660333087713 22.830459351246702 26.407259939271842 0 0 0
3045 1 3.495002843532093 21.078403469687846 24.690215466633862 0 0 0
3048 1 3.4783227194647885 22.84001097401716 26.414706696495184 0 0 0
3046 1 5.309372726920835 22.901737874624185 24.663397135065495 0 0 0
3047 1 5.257304827879529 21.090660960510668 26.39600740626634 0 0 0
3049 1 7.033027233561308 21.145962709594773 24.63594563146947 0 0 0
3052 1 7.062721973914659 22.91746966082635 26.41506385493167 0 0 0
3050 1 8.80242335040464 22.897733330441426 24.718013685572853 0 0 0
3051 1 8.820486653661826 21.099316433667227 26.460235212022894 0 0 0
3053 1 10.56872123211082 21.119786669219017 24.6684092132551 0 0 0
3056 1 10.554276988097598 22.820233729801462 26.396351914274074 0 0 0
3054 1 12.350196835972843 22.866173613843745 24.608337787699543 0 0 0
3055 1 12.324568120428236 21.106255447733872 26.41142085777386 0 0 0
3057 1 14.035425009387872 21.097630372988412 24.63542109191565 0 0 0
3060 1 14.094170802001733 22.824388019448847 26.389464380474703 0 0 0
3058 1 15.869833554717575 22.880474223078096 24.65919067835884 0 0 0
3059 1 15.872114999585591 21.10211308652366 26.375561656055435 0 0 0
3061 1 17.58621388883953 21.113933095684338 24.64130639226028 0 0 0
3062 1 19.33334183297491 22.88541030575255 24.65199990641814 0 0 0
3063 1 19.36269888220423 21.054122612878505 26.41080650185698 0 0 0
3064 1 17.621242353993704 22.87418103722633 26.407602711810092 0 0 0
3065 1 21.12071937880036 21.11516672736408 24.64772376204101 0 0 0
3066 1 22.852270274156528 22.84706631897651 24.681394928031946 0 0 0
3067 1 22.842585932178824 21.113975349585363 26.410608896871974 0 0 0
3068 1 21.194885165933687 22.86192062555865 26.428397377712233 0 0 0
3069 1 24.65618375584344 21.105496395241914 24.650144674876127 0 0 0
3070 1 26.376798072371532 22.896465812098924 24.63077255015082 0 0 0
3071 1 26.371483900399998 21.093921326738432 26.393827951372653 0 0 0
3072 1 24.58224130376199 22.930154236586258 26.389326468325724 0 0 0
3073 1 28.164869453513216 21.088420443620613 24.620995201805382 0 0 0
3074 1 29.908820620597677 22.8784549045836 24.690718082375266 0 0 0
3075 1 29.94220045953287 21.161514343500613 26.431213096249373 0 0 0
3076 1 28.14807198809595 22.88467644494785 26.44352509190627 0 0 0
3077 1 31.622183678216487 21.115878024913837 24.63388540889387 0 0 0
3078 1 33.46285963165636 22.847211871127094 24.618864240907623 0 0 0
3079 1 33.39916580490361 21.090033999074194 26.357056146310917 0 0 0
3080 1 31.683195244183985 22.90227638743825 26.395997885839996 0 0 0
3081 1 0.015273930676269979 24.58495567365568 24.607526780795173 0 0 0
3082 1 1.7432755506199065 26.418326124119865 24.638058285211653 0 0 0
3083 1 1.7788419229617032 24.65396137838566 26.33269882598428 0 0 0
3084 1 0.049588455295469784 26.400496921044226 26.37935821595062 0 0 0
3085 1 3.4725487843836906 24.619614564198116 24.584120756478058 0 0 0
3088 1 3.5707758825455587 26.399521140278917 26.400948965873205 0 0 0
3086 1 5.304883023611171 26.37164904230164 24.673047562057178 0 0 0
3087 1 5.307693563566521 24.602721850998897 26.44172515678828 0 0 0
3089 1 7.0247135831612 24.63680340229459 24.66354731843765 0 0 0
3092 1 7.032881509147846 26.453035881979627 26.40063475477352 0 0 0
3090 1 8.805693725135603 26.359330273601806 24.651979183157664 0 0 0
3091 1 8.770263904267628 24.71201876369453 26.40025520984354 0 0 0
3093 1 10.571776519859691 24.613826936403 24.608837362100548 0 0 0
3096 1 10.541568575333919 26.39890881589837 26.403693075725602 0 0 0
3094 1 12.307295215079593 26.395172151192085 24.654572145191633 0 0 0
3095 1 12.293420951635923 24.640136108303846 26.39570071341452 0 0 0
3097 1 14.021791934957143 24.62720086872619 24.59219391213313 0 0 0
3100 1 14.092026970311435 26.376531081425213 26.423564373843057 0 0 0
3098 1 15.827641403602126 26.350361312317077 24.668555002817314 0 0 0
3099 1 15.854699744311485 24.630828523527985 26.432333133241098 0 0 0
3101 1 17.620769489216308 24.672129907362258 24.600713168570326 0 0 0
3102 1 19.39290471070186 26.42235967292411 24.673199554891173 0 0 0
3103 1 19.385306363892706 24.669858489135954 26.41012184880322 0 0 0
3104 1 17.571949530974724 26.41131760335801 26.3712245979886 0 0 0
3105 1 21.12479882858221 24.653144717815767 24.62990832856235 0 0 0
3106 1 22.845194937009573 26.392873717200125 24.639619890703376 0 0 0
3107 1 22.892292499182638 24.673144318629408 26.391318995901777 0 0 0
3108 1 21.134932562866695 26.433391370579905 26.4206576673234 0 0 0
3109 1 24.658491719334982 24.6335996480024 24.642457712959548 0 0 0
3110 1 26.40620014626459 26.38545378632157 24.665781928438392 0 0 0
3111 1 26.40681374195158 24.648267691219385 26.464123352248077 0 0 0
3112 1 24.63398067091105 26.384692505398956 26.416995758915736 0 0 0
3113 1 28.176837301388577 24.663067949038364 24.66459728974606 0 0 0
3114 1 29.92271866152483 26.450017507686148 24.622230817180988 0 0 0
3115 1 29.91159239737774 24.63325065126884 26.390926332413425 0 0 0
3116 1 28.201717128312957 26.45493591487051 26.438036067415144 0 0 0
3117 1 31.703870567849478 24.63495811891062 24.668179956186584 0 0 0
3118 1 33.43708580842193 26.428676092801744 24.65479728478255 0 0 0
3119 1 33.430492440968486 24.726866707347543 26.445584586227376 0 0 0
3120 1 31.659692514663725 26.449531243516372 26.430534357071277 0 0 0
3121 1 0.0512202665601923 28.20708020828049 24.621758652396284 0 0 0
3122 1 1.7175877536879791 29.881863599129392 24.631684765857717 0 0 0
3123 1 1.7866933188651415 28.18845778489793 26.432347094179242 0 0 0
3124 1 35.20119347471366 30.014581951781743 26.421404171425028 -1 0 0
3125 1 3.5562602345516288 28.156165619834677 24.65005829725608 0 0 0
3128 1 3.516694566246717 29.952706557399505 26.435049768083402 0 0 0
3126 1 5.2872504733196735 29.93203444858824 24.62787816290535 0 0 0
3127 1 5.242425769630454 28.164699332237674 26.390474518623993 0 0 0
3129 1 7.057924927646511 28.14618609451545 24.680618909360636 0 0 0
3132 1 7.0343085691946765 29.936469155361173 26.369009095560934 0 0 0
3130 1 8.756683218163818 29.971345105359116 24.630688778063107 0 0 0
3131 1 8.856519345193178 28.133171422124914 26.376613801300955 0 0 0
3133 1 10.543079637283721 28.20498490513256 24.645858688885543 0 0 0
3136 1 10.582919791343627 29.943614903893653 26.40829912441763 0 0 0
3134 1 12.31742467430064 29.956334181717285 24.641655261534535 0 0 0
3135 1 12.257725568619213 28.172140411062156 26.42661622265991 0 0 0
3137 1 14.126116235500573 28.131525578346956 24.65828987815633 0 0 0
3140 1 14.078277534335468 29.895569326147953 26.416186963226085 0 0 0
3138 1 15.772934326999327 29.973429844112527 24.645264622769684 0 0 0
3139 1 15.80506562851774 28.231874035907577 26.38640376872179 0 0 0
3141 1 17.593641632909776 28.20301409873028 24.6193660740868 0 0 0
3142 1 19.318245829311728 29.89232877712617 24.639358091817552 0 0 0
3143 1 19.360399985207543 28.177975480581857 26.395051716773377 0 0 0
3144 1 17.575540823939527 29.976780923839257 26.388687210057594 0 0 0
3145 1 21.117446487666125 28.12765138025653 24.5737461309396 0 0 0
3146 1 22.928259995040953 29.914941395123204 24.669676113617534 0 0 0
3147 1 22.861587534728464 28.1148895145096 26.41013494630916 0 0 0
3148 1 21.12360321749294 29.93306490071257 26.35395587228934 0 0 0
3149 1 24.647406560038245 28.218754791650746 24.604161839295593 0 0 0
3150 1 26.44126992778231 29.93511180418858 24.649987793955866 0 0 0
3151 1 26.431525282080433 28.12031692874638 26.37746144215628 0 0 0
3152 1 24.585675822253567 29.95174072263671 26.399120348112266 0 0 0
3153 1 28.137725522274636 28.134278041400535 24.62719582751407 0 0 0
3154 1 29.939460521064785 29.9063453578884 24.600672263870862 0 0 0
3155 1 29.951919044984113 28.143741234787033 26.397355872087502 0 0 0
3156 1 28.268841464158257 29.95377328144171 26.408521333696367 0 0 0
3157 1 31.69068802806929 28.14620331881432 24.640233924668678 0 0 0
3158 1 33.46930438938768 29.85789694926343 24.63249756569325 0 0 0
3159 1 33.39694280481303 28.152954466675336 26.384994294652845 0 0 0
3160 1 31.679155172141606 29.890623001651935 26.371016277320837 0 0 0
3161 1 35.14262549677825 31.667275257701483 24.639379393315362 -1 0 0
3162 1 1.7749839601908677 33.49865544334195 24.57693956424377 0 0 0
3163 1 1.771272764620542 31.68068285558952 26.42175420608645 0 0 0
3164 1 35.18478149774632 33.46676380923386 26.41664907384486 -1 0 0
3165 1 3.5404743889705923 31.662279489697443 24.685519041155075 0 0 0
3168 1 3.50403898879525 33.45808540739908 26.4373683775917 0 0 0
3166 1 5.273698946212536 33.43938223753628 24.61239649379197 0 0 0
3167 1 5.300394387856361 31.693289470118195 26.379399293587653 0 0 0
3169 1 7.043373792314469 31.660877482013692 24.662693171642523 0 0 0
3172 1 7.0529429727150275 33.48875252638774 26.408499861745884 0 0 0
3170 1 8.784078286769118 33.40884789359861 24.630923292368337 0 0 0
3171 1 8.843869945792578 31.684772826807567 26.41842949517246 0 0 0
3173 1 10.536214558462751 31.675614784745058 24.60741131618037 0 0 0
3176 1 10.576190916927061 33.44207007983486 26.41964009917877 0 0 0
3174 1 12.318076675067838 33.46457202321545 24.646875548504074 0 0 0
3175 1 12.299450102510473 31.69011819716724 26.41317312868399 0 0 0
3177 1 14.058225822987316 31.695622710808088 24.660923348654954 0 0 0
3180 1 14.065909315310215 33.458728547347675 26.37119345725783 0 0 0
3178 1 15.789760429177651 33.435144446951504 24.67862093542115 0 0 0
3179 1 15.827021147588189 31.656813822542432 26.395006322177746 0 0 0
3181 1 17.586077160720098 31.679811187869742 24.59770487984739 0 0 0
3182 1 19.359273005807136 33.4716488536778 24.644496856140776 0 0 0
3183 1 19.348316227077916 31.722225074113158 26.421294882642105 0 0 0
3184 1 17.617906895956217 33.44177907922198 26.421115232103304 0 0 0
3185 1 21.11046352671127 31.689221199488905 24.67983245084482 0 0 0
3186 1 22.913179725986026 33.459190306967834 24.679440207101916 0 0 0
3187 1 22.922842329827226 31.641654651843737 26.401089749863733 0 0 0
3188 1 21.0963239037369 33.404708389442625 26.3686825932808 0 0 0
3189 1 24.676011791063647 31.611412400999072 24.635775118922535 0 0 0
3190 1 26.445961135951904 33.44664340581684 24.672032835100566 0 0 0
3191 1 26.404876325372115 31.696101061824148 26.373259163994927 0 0 0
3192 1 24.62433310239559 33.452596854291464 26.41354254162202 0 0 0
3193 1 28.170289501972373 31.671308438212396 24.627629558213673 0 0 0
3194 1 29.932360197888766 33.439459903266524 24.64033717076523 0 0 0
3195 1 29.99308351972055 31.708163247947745 26.42411095640347 0 0 0
3196 1 28.23558889693803 33.465067688731274 26.435128819967158 0 0 0
3197 1 31.660814403303707 31.685344150422576 24.67161690484629 0 0 0
3198 1 33.379632176808364 33.4269167282169 24.655373380632692 0 0 0
3199 1 33.4536533421024 31.66170908489576 26.39546538842304 0 0 0
3200 1 31.741347456794326 33.52122062735132 26.380156684339436 0 0 0
3201 1 35.14481677043251 0.0059721249818344615 28.108567656877 -1 0 0
3202 1 1.7628426632548295 1.7918241452815347 28.14641760923077 0 0 0
3203 1 1.7942569230777616 0.043129139147000325 29.900996010945562 0 0 0
3204 1 35.18286259376878 1.755320119569508 29.920470298574102 -1 0 0
3241 1 35.157445338217435 3.5037279979068243 28.140552528606424 -1 0 0
3243 1 1.7192234412438616 3.474487840709832 29.89671209510759 0 0 0
3205 1 3.535203591295254 35.19446144886948 28.17233477937816 0 -1 0
3208 1 3.501620494125254 1.7372801651098178 29.929220066364365 0 0 0
3245 1 3.498201564992502 3.516775510849164 28.170042496660333 0 0 0
3206 1 5.2594376898871795 1.767909390410474 28.18814714000717 0 0 0
3207 1 5.250452666871085 0.03145625639909789 29.9588209531621 0 0 0
3247 1 5.2391097844191465 3.497225849386873 29.90887924612521 0 0 0
3209 1 7.006589618287246 35.1834597093811 28.178650776507705 0 -1 0
3212 1 7.028766001957908 1.7684115907416937 29.939213350701785 0 0 0
3249 1 7.013789701967528 3.525732561631594 28.15394994837138 0 0 0
3210 1 8.77254555182976 1.7496200618854956 28.185159801489753 0 0 0
3211 1 8.811235404559602 35.182674578521116 29.86296540470399 0 -1 0
3251 1 8.79011247927078 3.5222080206105613 29.924025812352646 0 0 0
3213 1 10.576206854036888 0.021504739600012937 28.113662991970934 0 0 0
3216 1 10.570795207873859 1.781527229024265 29.926996723668882 0 0 0
3253 1 10.584224366460838 3.525780974745472 28.197714589590063 0 0 0
3214 1 12.303555836042234 1.7530528762224225 28.16264628826523 0 0 0
3215 1 12.301824606670518 0.013311611537576111 29.905661116967895 0 0 0
3255 1 12.292535195967865 3.4682645916231185 29.94271436150024 0 0 0
3217 1 14.09938813345172 0.011162141148910702 28.12820522253553 0 0 0
3220 1 14.070401228895195 1.8295274186208876 29.985663551461286 0 0 0
3257 1 14.100857577338253 3.528293732055405 28.179212856161627 0 0 0
3218 1 15.866489742204095 1.8008924065660037 28.169046446199086 0 0 0
3219 1 15.837407659832524 0.017267266648560313 29.921740089362377 0 0 0
3259 1 15.854598152231905 3.5645495524408863 29.938955686070198 0 0 0
3221 1 17.59349224347286 35.17774315876633 28.138892115824955 0 -1 0
3222 1 19.382863512012307 1.747139941549461 28.181691386191556 0 0 0
3223 1 19.33996052172192 35.18951012326189 29.90102173907063 0 -1 0
3224 1 17.62529001005591 1.7757059930011032 29.94733071975955 0 0 0
3261 1 17.632452443540753 3.456734648541505 28.17944390428997 0 0 0
3263 1 19.3746916196334 3.523843134750096 29.900821629410824 0 0 0
3225 1 21.130239065829837 35.188183417719024 28.170744335923835 0 -1 0
3226 1 22.85914442930052 1.7828089491713304 28.165814159658577 0 0 0
3227 1 22.895896705165345 35.16000153462507 29.931420780389786 0 -1 0
3228 1 21.158336015736875 1.7475284046622483 29.928180225173982 0 0 0
3265 1 21.05419734737689 3.5428239636788175 28.13014119592397 0 0 0
3267 1 22.851636130614096 3.563636349298516 29.947421696439104 0 0 0
3229 1 24.657627401453944 35.175568084529 28.167093895021704 0 -1 0
3230 1 26.391390164180507 1.8062088418037567 28.177586595750533 0 0 0
3231 1 26.379737614272454 35.14582227558856 29.942952225640838 0 -1 0
3232 1 24.650256391090256 1.7298304667702937 29.908121293987936 0 0 0
3269 1 24.6422866035422 3.49722901011304 28.174736408310952 0 0 0
3271 1 26.381925337838915 3.5357081905427847 29.87547374174057 0 0 0
3233 1 28.133314237024493 35.18177760623498 28.166214538294167 0 -1 0
3234 1 29.905321254168587 1.7694901324241714 28.1779720565198 0 0 0
3235 1 29.899306456993113 35.16782214419306 29.922831366093472 0 -1 0
3236 1 28.138675593450003 1.783980736479431 29.94075874759999 0 0 0
3273 1 28.167230279437952 3.5234749471819633 28.182089693981826 0 0 0
3275 1 29.93653537384708 3.5313043586282333 29.921425872823306 0 0 0
3237 1 31.69793736086588 35.189165111825425 28.19719842345929 0 -1 0
3238 1 33.42229236561438 1.7909985191191884 28.16025853805563 0 0 0
3239 1 33.43925349130217 0.0062979021279893944 29.8864164118446 0 0 0
3240 1 31.71182156650593 1.7376206254650266 29.919044950560476 0 0 0
3277 1 31.658295822969713 3.5242557435588107 28.136269607357022 0 0 0
3279 1 33.45141673567088 3.5477285046611238 29.885365952543626 0 0 0
3242 1 1.7278492598087556 5.302936248505514 28.151414464866143 0 0 0
3244 1 35.201211637978695 5.269683686134588 29.94104199114918 -1 0 0
3281 1 35.16467715256861 7.0129474651247135 28.139619382472212 -1 0 0
3283 1 1.7814577296692993 7.010039059890878 29.983938440321264 0 0 0
3248 1 3.527255685402207 5.321921342241807 29.916922243561622 0 0 0
3285 1 3.512353731004259 7.0448463967085075 28.159415090021568 0 0 0
3246 1 5.2424391848878455 5.259458980332285 28.18036538952713 0 0 0
3287 1 5.299963973866254 7.051373079344134 29.87464906791091 0 0 0
3252 1 7.023279576700564 5.289303491958817 29.909937417097996 0 0 0
3289 1 7.011806312908342 7.04071756811939 28.176069581392728 0 0 0
3250 1 8.78351389858996 5.285102430902921 28.174857928239 0 0 0
3291 1 8.82757432933983 7.063293839678519 29.93474091530665 0 0 0
3256 1 10.584819014220226 5.2803303690828916 29.919222388120282 0 0 0
3293 1 10.57354522420929 7.029354979925969 28.17167000451222 0 0 0
3254 1 12.309155973264401 5.262559675034764 28.145149544579276 0 0 0
3295 1 12.314121089790367 7.016487417288888 29.94333726770579 0 0 0
3260 1 14.089699024397126 5.2790232969793704 29.929565960134507 0 0 0
3297 1 14.110601286726673 7.089254343173881 28.179045063680185 0 0 0
3258 1 15.818619388672797 5.215234194568667 28.15536816044862 0 0 0
3299 1 15.847984070541733 7.005552801790049 29.91597290794927 0 0 0
3262 1 19.33561550240036 5.241836125672377 28.149071597139418 0 0 0
3264 1 17.61520586564919 5.293285929392299 29.92606499543054 0 0 0
3301 1 17.621086174683622 7.0259192024929416 28.142995954143704 0 0 0
3303 1 19.336857473322006 7.0461214237053245 29.896823191852413 0 0 0
3266 1 22.908095582308867 5.319092661562736 28.15467433875969 0 0 0
3268 1 21.11575651065846 5.279545471649846 29.889171772407437 0 0 0
3305 1 21.128340715992593 7.0629804022096945 28.160206048666325 0 0 0
3307 1 22.867725274781446 7.0298724615234685 29.93782099339547 0 0 0
3270 1 26.37119310051044 5.331751180983803 28.157669036149983 0 0 0
3272 1 24.6372068889282 5.290125054492759 29.960683493658856 0 0 0
3309 1 24.659459263517068 7.031086814511261 28.177848330247567 0 0 0
3311 1 26.38319346097497 7.019861639099498 29.927800978556363 0 0 0
3274 1 29.87198963911452 5.252015164719168 28.179354265003195 0 0 0
3276 1 28.11168489674349 5.32460033315936 29.952597343003657 0 0 0
3313 1 28.173759897125272 7.079936660441022 28.208882936398894 0 0 0
3315 1 29.891720065503886 7.096317882578411 29.935539497674988 0 0 0
3278 1 33.45607489519646 5.34159104333681 28.160913408739805 0 0 0
3280 1 31.704436599352828 5.267528164817204 29.886328524361094 0 0 0
3317 1 31.63445131658748 7.045106496165937 28.189356499763296 0 0 0
3319 1 33.430391770223146 7.0476005397474815 29.90443564044095 0 0 0
3282 1 1.753773268050053 8.796897776736047 28.188819837797386 0 0 0
3284 1 35.18583815209518 8.788731200088064 29.950103611615532 -1 0 0
3321 1 0.018462382671262066 10.579692903100982 28.153518314040017 0 0 0
3323 1 1.8015589387690478 10.548998114301071 29.93734166119431 0 0 0
3288 1 3.5209509775631527 8.793631800139979 29.942592150074656 0 0 0
3325 1 3.5077839885940567 10.630315990243883 28.116253337586652 0 0 0
3286 1 5.301862529252508 8.810037045487084 28.14908529197647 0 0 0
3327 1 5.265118836163039 10.561937030433635 29.907840319071383 0 0 0
3292 1 7.1505627206788285 8.798841852052181 29.916158329497144 0 0 0
3329 1 7.010815950710759 10.571224991944815 28.127465778205245 0 0 0
3290 1 8.820863109882465 8.769502534367257 28.14473561364831 0 0 0
3331 1 8.793180100785216 10.56548014982242 29.916628259728984 0 0 0
3296 1 10.555994867823237 8.808517906133153 29.944912210577154 0 0 0
3333 1 10.57102911351712 10.581817364278145 28.15862171562457 0 0 0
3294 1 12.312742495244393 8.779576384828324 28.164123600944563 0 0 0
3335 1 12.315806460414352 10.479223723236654 29.897380590675365 0 0 0
3300 1 14.057028845689407 8.84238177575921 29.91992426927435 0 0 0
3337 1 14.136430392900435 10.603560513929574 28.147346565692054 0 0 0
3298 1 15.835128962790192 8.786718131575947 28.18489365096076 0 0 0
3339 1 15.89905666140148 10.609158226083466 29.922662231447628 0 0 0
3302 1 19.317152258939544 8.799849958281937 28.129798005296294 0 0 0
3304 1 17.646565193804634 8.799197883325284 29.92837994023084 0 0 0
3341 1 17.60412623677845 10.567475673915148 28.177576019752365 0 0 0
3343 1 19.378357729417722 10.531442825015041 29.943837668615675 0 0 0
3306 1 22.93289539987451 8.771809359253691 28.171704430780824 0 0 0
3308 1 21.087316814333555 8.739632905106362 29.870254027391518 0 0 0
3345 1 21.131485061522053 10.530170419374015 28.151591934250447 0 0 0
3347 1 22.88238792939777 10.571960493376336 29.898782887886437 0 0 0
3310 1 26.408699604592943 8.871824545652533 28.142562077924783 0 0 0
3312 1 24.589316224071215 8.771677315476515 29.976715311436674 0 0 0
3349 1 24.59746565956469 10.524762548712731 28.171021421340143 0 0 0
3351 1 26.423216871488766 10.556106799544516 29.910629905853238 0 0 0
3314 1 29.886297641843814 8.833226945498946 28.141431346578933 0 0 0
3316 1 28.15161854807394 8.774974221416286 29.948859795141242 0 0 0
3353 1 28.13170515086538 10.571767819310258 28.128041528048374 0 0 0
3355 1 29.917409100881237 10.557307348284215 29.93636176072375 0 0 0
3318 1 33.442241101476675 8.798066742679676 28.174872417565755 0 0 0
3320 1 31.701077801303562 8.812196788631654 29.928958926210786 0 0 0
3357 1 31.64437415147506 10.538627616815655 28.151057133067297 0 0 0
3359 1 33.46720922118134 10.55756220407619 29.893992225910452 0 0 0
3322 1 1.7833784802035122 12.283921103453942 28.13738304986281 0 0 0
3324 1 35.14787317104557 12.37576618172387 29.917469870499744 -1 0 0
3361 1 0.00856961970250349 14.099017385816396 28.134651207978777 0 0 0
3363 1 1.7547951238830939 14.08418219993344 29.921824145747177 0 0 0
3328 1 3.487746754089347 12.367259994037632 29.917994947876437 0 0 0
3365 1 3.493833455193092 14.114692123791341 28.116008414045265 0 0 0
3326 1 5.238080154043679 12.347743365673876 28.20695427548708 0 0 0
3367 1 5.301190472470405 14.098275053308566 29.95314543852076 0 0 0
3332 1 7.047699739123612 12.341697823876176 29.90699787461174 0 0 0
3369 1 7.054723166846696 14.05032246740101 28.186072991226204 0 0 0
3330 1 8.805585296069474 12.373993052834482 28.17091360496216 0 0 0
3371 1 8.79686442294636 14.06452591526195 29.88882513372966 0 0 0
3336 1 10.57492836120845 12.3408031017846 29.893499634662028 0 0 0
3373 1 10.550987065972592 14.053747506003207 28.160452132174473 0 0 0
3334 1 12.324813109106055 12.385774010820283 28.157840832319465 0 0 0
3375 1 12.306281641658213 14.098091700073407 29.916533563034292 0 0 0
3340 1 14.054339141363643 12.34761948154121 29.92226596331305 0 0 0
3377 1 14.075333847234566 14.097365701673583 28.175516069359702 0 0 0
3338 1 15.796790351305155 12.312061661287032 28.161452001342944 0 0 0
3379 1 15.817231766338404 14.090115350176974 29.904083096326126 0 0 0
3342 1 19.349307253723904 12.357113124278818 28.160238520335465 0 0 0
3344 1 17.570095753140563 12.334884830292701 29.996584306970735 0 0 0
3381 1 17.54733454170094 14.068638110158233 28.208541510037524 0 0 0
3383 1 19.410310674453935 14.00854506233384 29.960342891763275 0 0 0
3346 1 22.87403654235713 12.302411847606676 28.191047200953886 0 0 0
3348 1 21.15146552488129 12.35381945401569 29.9483172801919 0 0 0
3385 1 21.12908379387833 14.049787354914688 28.1460423280449 0 0 0
3387 1 22.911362194634513 14.087924661198592 29.948891784752444 0 0 0
3350 1 26.4099754799338 12.311515455836854 28.184332330460574 0 0 0
3352 1 24.65237121350386 12.291125525396032 29.909201940291783 0 0 0
3389 1 24.633978537744554 14.033189221255512 28.18012794650809 0 0 0
3391 1 26.398117886572802 14.047532009361507 29.899066143724177 0 0 0
3354 1 29.917863746811072 12.28439698986519 28.222355728361165 0 0 0
3356 1 28.179422493690268 12.351231197934416 29.95174568451533 0 0 0
3393 1 28.098712902955047 14.057857344454892 28.151879658931378 0 0 0
3395 1 29.91575352063985 14.073141721121225 29.946544869200064 0 0 0
3358 1 33.52128794481093 12.32821437421605 28.205315642326536 0 0 0
3360 1 31.641262603672967 12.299267276276373 29.898184188427926 0 0 0
3397 1 31.709002502697462 14.071754075176658 28.147092096868622 0 0 0
3399 1 33.46846529720775 14.064438528477861 29.90993877316996 0 0 0
3362 1 1.7499682996368175 15.860550654688513 28.126182409640126 0 0 0
3364 1 35.185903156303624 15.858650578956869 29.943364210276957 -1 0 0
3401 1 35.145522916616166 17.63365840864405 28.191113284296307 -1 0 0
3402 1 1.7158411171200805 19.364871383904607 28.122844378804615 0 0 0
3403 1 1.7290883687922745 17.609333774330366 29.924035918873667 0 0 0
3404 1 35.182820509820495 19.35261416964672 29.892577482944095 -1 0 0
3368 1 3.5605032390043925 15.812966243212655 29.922842384900214 0 0 0
3405 1 3.533493377621265 17.5788350475606 28.120625444586064 0 0 0
3408 1 3.517973059840363 19.380037792097433 29.92729533348415 0 0 0
3366 1 5.28329610672168 15.854233446971476 28.13734189102428 0 0 0
3406 1 5.300098335883519 19.38443254212723 28.14735494384598 0 0 0
3407 1 5.180837549467839 17.601782947178137 29.941837516072592 0 0 0
3372 1 7.007971830594252 15.863394268605227 29.955245030991115 0 0 0
3409 1 7.0309516595382275 17.554167697835826 28.11712960735748 0 0 0
3412 1 7.034702804736178 19.376029300457287 29.8800869469678 0 0 0
3370 1 8.803442382495932 15.863350817259658 28.12642783511361 0 0 0
3410 1 8.822452587367355 19.34919025558341 28.167391449786876 0 0 0
3411 1 8.799816665444041 17.633998758944177 29.885331229033742 0 0 0
3376 1 10.534112275390548 15.826886565424838 29.931040669983187 0 0 0
3413 1 10.536719872164488 17.612801885332825 28.20497023057975 0 0 0
3416 1 10.588449035813767 19.374583498441723 29.963717973151564 0 0 0
3374 1 12.327184928527869 15.798356017523925 28.144018827653415 0 0 0
3414 1 12.350178675046577 19.3481451022013 28.146152579493236 0 0 0
3415 1 12.366010868786097 17.59587696007263 29.900850253020266 0 0 0
3380 1 14.09988380790947 15.82912502778944 29.968267914576536 0 0 0
3417 1 14.066638073848349 17.59029071305298 28.142018191165096 0 0 0
3420 1 14.115221887002582 19.32365851602287 29.921216684662873 0 0 0
3378 1 15.812983293181905 15.870586817952361 28.16064805415451 0 0 0
3418 1 15.872257212467915 19.317393203272335 28.140037387481463 0 0 0
3419 1 15.822288280063393 17.649786012305245 29.90980948989729 0 0 0
3382 1 19.368983737701534 15.872613471451357 28.140930926532192 0 0 0
3384 1 17.63719455398515 15.780040973114748 29.899031006597994 0 0 0
3421 1 17.60694956939944 17.606013172498404 28.121135991497475 0 0 0
3422 1 19.35110430201823 19.386274201803694 28.178908136558505 0 0 0
3423 1 19.309188551260792 17.547887511073988 29.903007284125085 0 0 0
3424 1 17.639817051103645 19.37498011144391 29.93000316444113 0 0 0
3386 1 22.94138286539311 15.841049529786448 28.185298154624178 0 0 0
3388 1 21.110953540663623 15.863219541522376 29.90246156553058 0 0 0
3425 1 21.115130480768613 17.639279041163274 28.116124756069024 0 0 0
3426 1 22.84954532967005 19.396571823858004 28.16346359043211 0 0 0
3427 1 22.836989131906066 17.567815212632834 29.895051059966555 0 0 0
3428 1 21.078874956326604 19.31660003479615 29.953021895177436 0 0 0
3390 1 26.412444079617956 15.874965715516428 28.16310371547503 0 0 0
3392 1 24.608208979238146 15.85975510732222 29.90651258102199 0 0 0
3429 1 24.633666333105435 17.61349610411962 28.164891284900875 0 0 0
3430 1 26.40041724090128 19.362735833121192 28.165408781093717 0 0 0
3431 1 26.38703460327407 17.54092882960385 29.847985206675478 0 0 0
3432 1 24.6258137415381 19.379481067315233 29.97380160757074 0 0 0
3394 1 29.91815145367188 15.862557756500244 28.151754821105825 0 0 0
3396 1 28.165584299549707 15.785933611239006 29.928934522503976 0 0 0
3433 1 28.164433134681325 17.580616487903896 28.16721892635148 0 0 0
3434 1 29.937440747363038 19.322830247840354 28.17670066796551 0 0 0
3435 1 29.925109843807068 17.569516916732667 29.9477401389566 0 0 0
3436 1 28.130276284793904 19.369769137073686 29.893653754112062 0 0 0
3398 1 33.43616742581169 15.83932380950115 28.10307412157621 0 0 0
3400 1 31.698014399790015 15.849510040754291 29.97740314555712 0 0 0
3437 1 31.720425417774887 17.548205238730354 28.162230183929015 0 0 0
3438 1 33.43653720242328 19.3333572811414 28.145821872476258 0 0 0
3439 1 33.430542130251936 17.5892965442909 29.9673223483247 0 0 0
3440 1 31.66339963192412 19.37097617557427 29.893810546565472 0 0 0
3441 1 0.005944250970335893 21.15576668254974 28.167123025700665 0 0 0
3442 1 1.778110395352821 22.849846988923105 28.197756306065557 0 0 0
3443 1 1.7572512860218026 21.10288720176601 29.982210711078263 0 0 0
3444 1 -0.0004813437883827449 22.93313466585393 29.92893566277073 0 0 0
3445 1 3.5089758628755705 21.074716740727638 28.17532043337358 0 0 0
3448 1 3.5275405873453947 22.868717501843065 29.921637956979847 0 0 0
3446 1 5.2689031925985645 22.89982669718424 28.134082839130155 0 0 0
3447 1 5.317306983041663 21.12292883748535 29.930353834946843 0 0 0
3449 1 7.033561808724202 21.110511336791486 28.164025980215886 0 0 0
3452 1 7.0423996305787115 22.8560702132725 29.91397462111212 0 0 0
3450 1 8.733301712034645 22.891221876802078 28.15851531328029 0 0 0
3451 1 8.770653207920567 21.10155206347546 29.88215178662331 0 0 0
3453 1 10.567860354300688 21.106732407425454 28.129287117235247 0 0 0
3456 1 10.545529001542391 22.88954602395888 29.919358560883744 0 0 0
3454 1 12.304495051375026 22.870342363926582 28.159856034633393 0 0 0
3455 1 12.34973454035828 21.11006111846316 29.899707845730024 0 0 0
3457 1 14.093997786744287 21.096668315901816 28.196532996431664 0 0 0
3460 1 14.097440357707898 22.805982124635708 29.87556056920875 0 0 0
3458 1 15.852224970368207 22.87525670378591 28.06439931902467 0 0 0
3459 1 15.81058577356111 21.031723969564844 29.884732147079006 0 0 0
3461 1 17.58418617924266 21.118785942219418 28.210972114761827 0 0 0
3462 1 19.292639294049295 22.904828244905456 28.15826198488047 0 0 0
3463 1 19.339421294212254 21.117171646612164 29.907389638838918 0 0 0
3464 1 17.606475224761343 22.841704111505557 29.947275685330442 0 0 0
3465 1 21.136735479804983 21.136093963657597 28.156770682479 0 0 0
3466 1 22.91182034972626 22.882968887817096 28.143394205721545 0 0 0
3467 1 22.89993164068471 21.130023045646514 29.944705374011516 0 0 0
3468 1 21.126721380810952 22.91654515840231 29.88977219701416 0 0 0
3469 1 24.63608966027508 21.108311501707245 28.15703640722011 0 0 0
3470 1 26.405362456014863 22.896411115358084 28.17229224127366 0 0 0
3471 1 26.37659522877944 21.112684514969896 29.90829640408282 0 0 0
3472 1 24.594635208434408 22.8732062588764 29.90769111793927 0 0 0
3473 1 28.118683949140657 21.142219072542197 28.189647681270703 0 0 0
3474 1 29.907726470356803 22.862824198062984 28.185242684716766 0 0 0
3475 1 29.907410448947537 21.06820894922426 29.942513396714336 0 0 0
3476 1 28.1398150560701 22.835642462200024 29.88172614322146 0 0 0
3477 1 31.665940167923665 21.08152409904931 28.184908083524274 0 0 0
3478 1 33.41642966163462 22.895547088928666 28.15941710815358 0 0 0
3479 1 33.4044646451646 21.126678907486735 29.924486708339277 0 0 0
3480 1 31.670899763039504 22.89371760832998 29.946491420760324 0 0 0
3481 1 35.17589415204505 24.67326806339623 28.1762019456112 -1 0 0
3482 1 1.7306203301016867 26.357164129479713 28.18206268233951 0 0 0
3483 1 1.714355448501101 24.658908155581152 29.95542714694273 0 0 0
3484 1 35.18310469679317 26.42286134028649 29.916068775736555 -1 0 0
3485 1 3.5164986624964083 24.62501458477925 28.197183981659485 0 0 0
3488 1 3.5360245288498864 26.384068801699996 29.94365371927701 0 0 0
3486 1 5.259921782581816 26.41674717271136 28.193867558085486 0 0 0
3487 1 5.260532119422062 24.641874747852953 29.91856228020648 0 0 0
3489 1 7.006872040770232 24.67440156992124 28.20194095456736 0 0 0
3492 1 7.001676469788853 26.419259228249768 29.94993184363886 0 0 0
3490 1 8.842230368088696 26.461673359969257 28.175925372618515 0 0 0
3491 1 8.809353395137466 24.63594631696365 29.885187176158553 0 0 0
3493 1 10.557766913216405 24.67198690948063 28.17979123686942 0 0 0
3496 1 10.517631252281326 26.404887176646092 29.946437888011676 0 0 0
3494 1 12.296689083884178 26.424316607792402 28.17264075655869 0 0 0
3495 1 12.308444604877964 24.618396020803743 29.88675990969263 0 0 0
3497 1 14.08420281400835 24.633224712054513 28.130971582771384 0 0 0
3500 1 14.103878613769098 26.34361609980778 29.90754838981526 0 0 0
3498 1 15.819674067001545 26.411185699732627 28.158792512094458 0 0 0
3499 1 15.896166506854096 24.62940956953854 29.887999835965942 0 0 0
3501 1 17.62189250909253 24.612586817298507 28.10102042273646 0 0 0
3502 1 19.35720421954202 26.398440964564227 28.14330119286009 0 0 0
3503 1 19.318658804874364 24.657366893981244 29.9394922657245 0 0 0
3504 1 17.602256815266408 26.402276986708568 29.905379794172052 0 0 0
3505 1 21.10488721052551 24.643022476066488 28.120137410295044 0 0 0
3506 1 22.900980863128225 26.398097248535624 28.13252691711043 0 0 0
3507 1 22.88774630819544 24.637832542546903 29.89025431242761 0 0 0
3508 1 21.121017841678146 26.447558894406246 29.918028179683937 0 0 0
3509 1 24.645859956636492 24.585634751368623 28.160245160377183 0 0 0
3510 1 26.460112060850932 26.43256316413327 28.165064141380984 0 0 0
3511 1 26.422927067187477 24.616768687099487 29.91044490974835 0 0 0
3512 1 24.620790961532588 26.38110515733608 29.88349977191077 0 0 0
3513 1 28.21760155360695 24.657927405542075 28.21869351575042 0 0 0
3514 1 29.950149174658016 26.404906087427467 28.143611847675054 0 0 0
3515 1 29.907622847576246 24.661765081064523 29.912111729268364 0 0 0
3516 1 28.181088825629665 26.4243373651646 29.92123872414909 0 0 0
3517 1 31.666342195756357 24.636570173524103 28.182593813843855 0 0 0
3518 1 33.412381180788735 26.464353811899585 28.203779099059744 0 0 0
3519 1 33.49705292861283 24.62864589388836 29.885274010705082 0 0 0
3520 1 31.706894678715784 26.406003224351792 29.940865969462543 0 0 0
3521 1 35.1900363822076 28.14571256355634 28.158070514093904 -1 0 0
3522 1 1.7699070889937136 29.924528640596634 28.152995554790294 0 0 0
3523 1 1.7751638935893448 28.154052981072194 29.940258026058803 0 0 0
3524 1 35.18640071900116 29.928132916854118 29.932752556648254 -1 0 0
3525 1 3.51561696875451 28.18682721037867 28.153417313132902 0 0 0
3528 1 3.531280128837475 29.911870693670423 29.94376117654676 0 0 0
3526 1 5.2910217966570166 29.967534617236904 28.111457827772732 0 0 0
3527 1 5.310178380848499 28.158971224523068 29.8803762035502 0 0 0
3529 1 7.0492302938055245 28.175471637787368 28.183576673487845 0 0 0
3532 1 7.073917297857659 29.908231715756198 29.910425153164137 0 0 0
3530 1 8.789683236175335 29.908087237895803 28.161644083351824 0 0 0
3531 1 8.789169283678786 28.17595892605818 29.970606404560655 0 0 0
3533 1 10.553888843745245 28.14210876407443 28.190202173544733 0 0 0
3536 1 10.605990048524093 29.92939222378763 29.884157658896406 0 0 0
3534 1 12.330342952133565 29.95753910543366 28.129914399820187 0 0 0
3535 1 12.29286488309808 28.179170337817535 29.92540983512055 0 0 0
3537 1 14.152470890529646 28.104915712924505 28.182665016476815 0 0 0
3540 1 14.049474731759556 29.933639291824218 29.890407715664196 0 0 0
3538 1 15.781859954989388 29.906452809937466 28.16194191507308 0 0 0
3539 1 15.83045061224137 28.18838531280996 29.86642809716752 0 0 0
3541 1 17.59280460739497 28.211336053547107 28.12662339210327 0 0 0
3542 1 19.336620380019912 29.926681232226436 28.140214023499155 0 0 0
3543 1 19.341871823906335 28.13472834191265 29.870330274503424 0 0 0
3544 1 17.572225675480208 29.910121380288345 29.91020239529501 0 0 0
3545 1 21.084601556730835 28.145115071347867 28.20422798843164 0 0 0
3546 1 22.883019404758322 29.88932766850214 28.148711804630068 0 0 0
3547 1 22.925631735297237 28.18333512029984 29.867818698818162 0 0 0
3548 1 21.155421808430415 29.878479105830824 29.928752769565 0 0 0
3549 1 24.668476256811402 28.18568529894391 28.118108332875547 0 0 0
3550 1 26.362934647651855 29.940641782636913 28.17432829575287 0 0 0
3551 1 26.378073453934523 28.101088890193097 29.909738204321943 0 0 0
3552 1 24.58723513873985 29.958380564453627 29.87802330773483 0 0 0
3553 1 28.106021260437416 28.17300136456251 28.14578522440383 0 0 0
3554 1 29.934715098662583 29.940307648074217 28.162259871794646 0 0 0
3555 1 29.9536282925364 28.141468026446418 29.856195412016152 0 0 0
3556 1 28.124196405084152 29.95046433347471 29.939654871971623 0 0 0
3557 1 31.699721729302436 28.137621744209262 28.200602559463537 0 0 0
3558 1 33.45675055151974 29.916299975953336 28.11530523245107 0 0 0
3559 1 33.462918635443415 28.15591951224159 29.930499240987967 0 0 0
3560 1 31.680168929724996 29.934558969438008 29.926159212273657 0 0 0
3561 1 35.153823593132984 31.65241701308727 28.16396014859248 -1 0 0
3562 1 1.735489797941769 33.45080359981406 28.167540810672655 0 0 0
3563 1 1.765682515306258 31.683262517534303 29.943105559562603 0 0 0
3564 1 35.1568325983153 33.431051111839594 29.935057916690532 -1 0 0
3565 1 3.543186861366698 31.669212844108053 28.194577051429217 0 0 0
3568 1 3.5030535090084607 33.444872181285135 29.894838923151315 0 0 0
3566 1 5.289904597054226 33.46264406326853 28.149290181773672 0 0 0
3567 1 5.309975446769428 31.682444619376554 29.899794558876838 0 0 0
3569 1 7.020115956182703 31.67721236398449 28.127083417673017 0 0 0
3572 1 7.09190336461356 33.40175739731931 29.90560295453725 0 0 0
3570 1 8.866341952175887 33.41814851494244 28.15640636674377 0 0 0
3571 1 8.810613977172165 31.687147943995544 29.885010531754055 0 0 0
3573 1 10.56433639814673 31.681695549155943 28.143132498587466 0 0 0
3576 1 10.593823122093909 33.46131806292386 29.936388360252227 0 0 0
3574 1 12.30453579542948 33.47528009531507 28.156593281842735 0 0 0
3575 1 12.30031342951437 31.700350510882455 29.93969437883988 0 0 0
3577 1 14.095227402641466 31.664862998621192 28.180292800014985 0 0 0
3580 1 14.098461362253207 33.403362890077894 29.920444034254494 0 0 0
3578 1 15.844143530315552 33.41370419431733 28.18962764723337 0 0 0
3579 1 15.858591298086758 31.659299907353635 29.91329904030128 0 0 0
3581 1 17.541891575980078 31.678882894422845 28.139444522597614 0 0 0
3582 1 19.33804055547888 33.4065101421141 28.20718230162316 0 0 0
3583 1 19.36013169364898 31.714151510148486 29.908361086503675 0 0 0
3584 1 17.639576787286124 33.41291779624223 29.890320135707807 0 0 0
3585 1 21.167717750817516 31.694612186930843 28.148305037050083 0 0 0
3586 1 22.90933173367418 33.46062184078257 28.152836827893193 0 0 0
3587 1 22.903681619160974 31.720710034010825 29.94402895255792 0 0 0
3588 1 21.06264581721183 33.46418839085744 29.896927636341683 0 0 0
3589 1 24.653622635436115 31.641215565019895 28.166704791189613 0 0 0
3590 1 26.395145557365584 33.456268878502925 28.156612425431327 0 0 0
3591 1 26.40490374764206 31.630151495074916 29.926479584058075 0 0 0
3592 1 24.630440703898163 33.42711551235739 29.956054765371075 0 0 0
3593 1 28.09719773140341 31.692675771999003 28.175508410766387 0 0 0
3594 1 29.908635810586535 33.475913715329845 28.198715100148384 0 0 0
3595 1 29.94324553954394 31.60836370776257 29.95234525656358 0 0 0
3596 1 28.17768568483543 33.419833028051414 29.900753452148347 0 0 0
3597 1 31.68727025943399 31.657229662492483 28.1629266694005 0 0 0
3598 1 33.44346413200188 33.44409911303609 28.18221620201611 0 0 0
3599 1 33.394723321122925 31.713917669565806 29.948287037935806 0 0 0
3600 1 31.67732435486546 33.417120256136464 29.897353642620942 0 0 0
3601 1 35.148283504148765 35.18128932494526 31.659148014077324 -1 -1 0
3602 1 1.7490652496854642 1.7187607900630342 31.716344752246343 0 0 0
3603 1 1.7972188004158751 35.18514985329941 33.423778517093304 0 -1 0
3604 1 0.013854482271718052 1.760992292052592 33.460181443175586 0 0 0
3641 1 35.17004629851543 3.5402322017522203 31.736979239275538 -1 0 0
3643 1 1.789902798133474 3.5318900106640525 33.48046841271206 0 0 0
3605 1 3.4763204968492647 0.0006025980279912384 31.66709111313988 0 0 0
3608 1 3.5218489752497275 1.7575446326158939 33.454135200557644 0 0 0
3645 1 3.5517745990928598 3.5340551647052805 31.636876977585743 0 0 0
3606 1 5.289291049426518 1.7672157116052856 31.650020287281546 0 0 0
3607 1 5.277780348162367 0.006125486019813475 33.479296815596605 0 0 0
3647 1 5.303624784423821 3.5055510341398484 33.4678738647631 0 0 0
3609 1 7.04124094580831 35.147279307698355 31.722784477361852 0 -1 0
3612 1 7.0240358364645274 1.7504917047956925 33.469245732285195 0 0 0
3649 1 7.032073814404638 3.5213275397702337 31.722531056487597 0 0 0
3610 1 8.777832376895072 1.7694251481373429 31.692539696302916 0 0 0
3611 1 8.755763893889931 35.190666824809654 33.43741297965286 0 -1 0
3651 1 8.82207162709874 3.535269811497094 33.48214184484911 0 0 0
3613 1 10.552618675830452 35.182369828883644 31.685726849997366 0 -1 0
3616 1 10.569019151480056 1.7972880677369167 33.37509236885439 0 0 0
3653 1 10.566826912572239 3.4655330449440913 31.695420644635586 0 0 0
3614 1 12.327858570067226 1.747460389271827 31.699396382101803 0 0 0
3615 1 12.315806310112627 35.1936456882195 33.401716440445114 0 -1 0
3655 1 12.288927320903982 3.4969782637493383 33.441585316774294 0 0 0
3617 1 14.124985628776013 0.011122563407530744 31.660814274056204 0 0 0
3620 1 14.061688699561177 1.8025090292531196 33.49493388269163 0 0 0
3657 1 14.085081786916621 3.518206370929216 31.65844185118656 0 0 0
3618 1 15.828116889576147 1.7639848187539562 31.70946661673353 0 0 0
3619 1 15.89788362461621 0.008422688472052702 33.442264505271915 0 0 0
3659 1 15.780526486068121 3.545038264826479 33.40304379170947 0 0 0
3621 1 17.600065181330272 35.15982825687943 31.664893310293685 0 -1 0
3622 1 19.367549649172624 1.7938698630920924 31.648257640474974 0 0 0
3623 1 19.38291227339751 0.006662806969490882 33.43802289368547 0 0 0
3624 1 17.591479454904338 1.7664002259595202 33.4264790843348 0 0 0
3661 1 17.587130086384118 3.4994570669212055 31.683845780137528 0 0 0
3663 1 19.33957437102673 3.544644984227299 33.4238104245138 0 0 0
3625 1 21.154472429186715 0.026025970537501875 31.67969023532958 0 0 0
3626 1 22.894980238430964 1.7516314908055808 31.710817414757198 0 0 0
3627 1 22.897587473972298 0.0057561362576303895 33.44541175147181 0 0 0
3628 1 21.14977502905407 1.7871334775877135 33.41833790085289 0 0 0
3665 1 21.157656854642894 3.53620516698314 31.73226007501918 0 0 0
3667 1 22.868177415582412 3.5504247018933515 33.4295168349468 0 0 0
3629 1 24.61255772271054 35.18645583004005 31.674508247379524 0 -1 0
3630 1 26.421229483385872 1.7631430500884286 31.683847896391065 0 0 0
3631 1 26.419457989291264 0.04687983091132684 33.42505668958948 0 0 0
3632 1 24.67017644979684 1.7341424760664415 33.443441850048956 0 0 0
3669 1 24.650838624052824 3.553449021383986 31.697904396950246 0 0 0
3671 1 26.380257441367835 3.5309457469134777 33.458717681305274 0 0 0
3633 1 28.17225319870982 35.181595958178775 31.69197616051463 0 -1 0
3634 1 29.918291642217177 1.777802613217701 31.676741012632593 0 0 0
3635 1 29.91351359667028 35.20084953180515 33.381452165328305 0 -1 0
3636 1 28.16809193356319 1.7795970609366918 33.44946370702305 0 0 0
3673 1 28.14669897209685 3.5241025907147026 31.646390243092036 0 0 0
3675 1 29.953203088333307 3.505273229882278 33.39540014895642 0 0 0
3637 1 31.689742579764648 0.025934433607022085 31.686030251111863 0 0 0
3638 1 33.40611998072669 1.743809918706159 31.677545229380748 0 0 0
3639 1 33.4399210186551 0.03216526740152304 33.44324861443854 0 0 0
3640 1 31.656992468291726 1.7586365146907768 33.450833959281 0 0 0
3677 1 31.657961150793966 3.504348145363839 31.635867966268297 0 0 0
3679 1 33.382700971338444 3.53152899039634 33.44703222951966 0 0 0
3642 1 1.7485658676064544 5.261200836571308 31.702463702135915 0 0 0
3644 1 0.014803556841894543 5.285851570732723 33.46108104745875 0 0 0
3681 1 0.03815399949580769 7.055283133310366 31.64823063343164 0 0 0
3683 1 1.7721780597521215 7.041491797687914 33.45431714267662 0 0 0
3648 1 3.4872496631772627 5.285758841089723 33.40399192481922 0 0 0
3685 1 3.5080381090944273 7.0846337686757535 31.676588956571216 0 0 0
3646 1 5.311948082162492 5.277984750526048 31.654120760709915 0 0 0
3687 1 5.298142858344809 7.032787806421512 33.455811813470504 0 0 0
3652 1 7.066112425017883 5.293383502039642 33.436111634852175 0 0 0
3689 1 7.04726626557621 7.036177706735716 31.695191199503924 0 0 0
3650 1 8.75649375914305 5.273392609580106 31.677188389836203 0 0 0
3691 1 8.789465380266835 7.0579278560048015 33.42668005341108 0 0 0
3656 1 10.569241439514123 5.281236390837642 33.46325891720928 0 0 0
3693 1 10.58185330603664 7.060350511280853 31.712914227466072 0 0 0
3654 1 12.302634982666175 5.2490695391850535 31.706124191762395 0 0 0
3695 1 12.292884643504824 7.0319149226597375 33.395327348884244 0 0 0
3660 1 14.067487323984226 5.297733197750464 33.39360799827675 0 0 0
3697 1 14.094157081929522 7.039594728535493 31.657087180964368 0 0 0
3658 1 15.838268091421112 5.276161726488623 31.659683542741085 0 0 0
3699 1 15.83569065514289 7.012058331073762 33.442308242845534 0 0 0
3662 1 19.42329660250094 5.249740291860015 31.673598711583438 0 0 0
3664 1 17.541331373406035 5.293092325009291 33.43184549907886 0 0 0
3701 1 17.606253252880734 7.058376208939387 31.720424187155142 0 0 0
3703 1 19.327802632229023 7.011985824947552 33.463386553659795 0 0 0
3666 1 22.86927602944094 5.315978729545559 31.706028169807876 0 0 0
3668 1 21.1213979945108 5.258250892918469 33.49689369996195 0 0 0
3705 1 21.113630896551914 7.03315697950631 31.641491489351672 0 0 0
3707 1 22.815077023262152 7.092030677338647 33.42289492025888 0 0 0
3670 1 26.400890189634357 5.254456640649032 31.710589362464514 0 0 0
3672 1 24.657959618541263 5.254282426944057 33.468587491382664 0 0 0
3709 1 24.63958911196411 6.9923661208901375 31.712613989449036 0 0 0
3711 1 26.389050004111514 7.027048276293165 33.43903080421327 0 0 0
3674 1 29.909891312837303 5.325107863664456 31.733464167778273 0 0 0
3676 1 28.139013692466914 5.27811095220733 33.366604806323735 0 0 0
3713 1 28.172266352806755 7.038006426437155 31.68014611799484 0 0 0
3715 1 29.920254140267474 7.040384299075847 33.465430352084894 0 0 0
3678 1 33.461377354438014 5.325465693474258 31.693652485858447 0 0 0
3680 1 31.695525304051444 5.233539975947118 33.40049381451475 0 0 0
3717 1 31.70199983277619 7.008676276408816 31.651998369652862 0 0 0
3719 1 33.48631473041933 7.035060950151894 33.428034022407616 0 0 0
3682 1 1.7260886454707465 8.780783390756143 31.69861323196364 0 0 0
3684 1 35.11605622456689 8.801111821859957 33.37590173825855 -1 0 0
3721 1 35.19771325502989 10.623516781382317 31.661029411727032 -1 0 0
3723 1 1.754512282069767 10.554770114199549 33.44392605768485 0 0 0
3688 1 3.531627059459012 8.837523730197246 33.40738358731541 0 0 0
3725 1 3.5034578699398673 10.570733794101686 31.638122241149315 0 0 0
3686 1 5.290391501676464 8.82343408248852 31.738860423229763 0 0 0
3727 1 5.319468680727874 10.547256388088444 33.418938834433966 0 0 0
3692 1 7.037305141683402 8.799145558247035 33.42234439766802 0 0 0
3729 1 7.04578572799915 10.50781049744545 31.672685089964062 0 0 0
3690 1 8.76370585245918 8.819562139280976 31.612826343920442 0 0 0
3731 1 8.836877700634169 10.501318962297612 33.46516025065175 0 0 0
3696 1 10.527057921811856 8.796332688289889 33.38977164314799 0 0 0
3733 1 10.557111185436653 10.55700362905172 31.698260472545385 0 0 0
3694 1 12.35451200417721 8.847208986704702 31.670417655246656 0 0 0
3735 1 12.29911993413452 10.535938216711232 33.44962480829738 0 0 0
3700 1 14.120869301613432 8.853346935988577 33.42724741065206 0 0 0
3737 1 14.126507623722645 10.521754426166284 31.693238525864267 0 0 0
3698 1 15.825698377387729 8.83886527176077 31.674638203455682 0 0 0
3739 1 15.86592922099419 10.541276133892262 33.47745823763888 0 0 0
3702 1 19.36452244635453 8.809890976741698 31.72451449583354 0 0 0
3704 1 17.62786763374854 8.787873217528285 33.445379757311755 0 0 0
3741 1 17.58359200054251 10.55426098913095 31.759260950023624 0 0 0
3743 1 19.349437391735677 10.564531547696188 33.49958540615664 0 0 0
3706 1 22.86241184072037 8.821819689928594 31.677447560943254 0 0 0
3708 1 21.11595847397198 8.764668767602695 33.47110542776802 0 0 0
3745 1 21.09539943900954 10.569579397216545 31.692779821318886 0 0 0
3747 1 22.846575068609003 10.56328467332237 33.46991175745052 0 0 0
3710 1 26.40750568832791 8.774001787627626 31.701501188483377 0 0 0
3712 1 24.627396971962984 8.78312629594927 33.408834696580044 0 0 0
3749 1 24.649172268587403 10.54720306856757 31.71467414219035 0 0 0
3751 1 26.382103676178005 10.55663863658412 33.439957317581836 0 0 0
3714 1 29.90971210467052 8.79755035267546 31.71993917439527 0 0 0
3716 1 28.119771359085256 8.800368725084649 33.501926647580504 0 0 0
3753 1 28.15537825931915 10.561080596225038 31.68797056520332 0 0 0
3755 1 29.89128102722341 10.526798004698186 33.40473291034476 0 0 0
3718 1 33.43056083102834 8.794999491293408 31.70982109906987 0 0 0
3720 1 31.700920057211246 8.784535624290326 33.44033739790938 0 0 0
3757 1 31.68294082553054 10.57858934413746 31.69782004945779 0 0 0
3759 1 33.47034000190886 10.595538167091213 33.432736672496446 0 0 0
3722 1 1.7605046377628182 12.308499693314022 31.707612753994148 0 0 0
3724 1 35.19116031939011 12.248358037122332 33.424144418163166 -1 0 0
3761 1 0.008577565030702264 14.082751909866916 31.684922323622867 0 0 0
3763 1 1.7503992850159562 14.04601120176654 33.44982968524714 0 0 0
3728 1 3.4989251055271677 12.31959276860176 33.46040735781528 0 0 0
3765 1 3.5091751840928778 14.074256935567297 31.653974488298477 0 0 0
3726 1 5.2661672013211485 12.324837332382717 31.75365278161938 0 0 0
3767 1 5.292788526225209 14.027506911779904 33.48061547492216 0 0 0
3732 1 7.08975035868445 12.30869034740137 33.46383213808558 0 0 0
3769 1 7.032669309681896 14.050126853171864 31.67229182299758 0 0 0
3730 1 8.757941049599724 12.29971209347616 31.67731728995516 0 0 0
3771 1 8.768165116170554 14.10920812591394 33.46132180705128 0 0 0
3736 1 10.529295964421385 12.318902682457193 33.44049602792597 0 0 0
3773 1 10.5469951192048 14.116531002837348 31.68522467642336 0 0 0
3734 1 12.30884827338428 12.34818335431619 31.678852953672827 0 0 0
3775 1 12.331259562166382 14.069458991723188 33.46152268256771 0 0 0
3740 1 14.104179647361606 12.38725471414946 33.44586196542673 0 0 0
3777 1 14.067763785218268 14.128186914118642 31.686712856338072 0 0 0
3738 1 15.850551450544106 12.328092383367183 31.663063624145487 0 0 0
3779 1 15.785661428558846 14.073924622402238 33.45624246058012 0 0 0
3742 1 19.321116703870523 12.380900391582673 31.694632475126784 0 0 0
3744 1 17.61461511922625 12.359778936375708 33.40941332559178 0 0 0
3781 1 17.624169390439555 14.099851733370482 31.714240511656463 0 0 0
3783 1 19.34535146355198 14.080558075417258 33.432920142191634 0 0 0
3746 1 22.869295254484836 12.357200478285296 31.70643582305012 0 0 0
3748 1 21.148276174394738 12.352663038964408 33.43728910739675 0 0 0
3785 1 21.146091801779317 14.071646581525535 31.69122322365484 0 0 0
3787 1 22.89614272858198 14.111219047411142 33.42092807540784 0 0 0
3750 1 26.39208872152567 12.328031624487265 31.64233088997629 0 0 0
3752 1 24.70123453954293 12.318775715141998 33.459353675220406 0 0 0
3789 1 24.6074528555194 14.081895863846349 31.708463118539818 0 0 0
3791 1 26.424549358585928 14.077415815595906 33.43467878696988 0 0 0
3754 1 29.88622669604474 12.273852676958397 31.69777111707628 0 0 0
3756 1 28.22329203303208 12.304603440734319 33.43820672290638 0 0 0
3793 1 28.171246918123302 14.072598286786349 31.74648310309889 0 0 0
3795 1 29.905949171375468 14.079646701242513 33.43509431389442 0 0 0
3758 1 33.494261308817336 12.298678210229381 31.69241667654047 0 0 0
3760 1 31.62787332819208 12.360210896431338 33.46622584753691 0 0 0
3797 1 31.641306183151208 14.129807624632623 31.6998799394217 0 0 0
3799 1 33.49165931688458 14.098710726271051 33.44655966712653 0 0 0
3762 1 1.7779625305608155 15.838535919643121 31.718914982147645 0 0 0
3764 1 0.015576197328278599 15.815134743453648 33.45454120318515 0 0 0
3801 1 35.18813829795595 17.651126768948647 31.720324414116224 -1 0 0
3802 1 1.743296237399243 19.397459032731092 31.67428617762954 0 0 0
3803 1 1.7480046941061866 17.63274193215585 33.48919821116661 0 0 0
3804 1 0.03449925950367318 19.433148494516526 33.453853883842264 0 0 0
3768 1 3.4893272797973314 15.831843630379852 33.45687515697036 0 0 0
3805 1 3.448273559337822 17.59031221460632 31.718404724613915 0 0 0
3808 1 3.528295480212092 19.350087697586485 33.473268751117715 0 0 0
3766 1 5.313271467500124 15.808802344691925 31.62695409921675 0 0 0
3806 1 5.293401841947583 19.390983911047254 31.66437112868444 0 0 0
3807 1 5.311316818698544 17.62149207812157 33.46053332541773 0 0 0
3772 1 6.9791177536922815 15.801722534608164 33.416940943816 0 0 0
3809 1 7.040443079808155 17.620619552442054 31.710728934156364 0 0 0
3812 1 7.0715202598401445 19.372931872424918 33.41981458893732 0 0 0
3770 1 8.752272750242616 15.802037232204706 31.656143185269684 0 0 0
3810 1 8.785770353076398 19.398830587245115 31.67376514275738 0 0 0
3811 1 8.812769839636637 17.592791973353535 33.46124471389621 0 0 0
3776 1 10.526942718039638 15.862708727326211 33.48434639212782 0 0 0
3813 1 10.543697560768997 17.589250833834242 31.70082110785832 0 0 0
3816 1 10.548693725182842 19.409852293469566 33.44276283195185 0 0 0
3774 1 12.29082642791064 15.857461646971933 31.67075117681831 0 0 0
3814 1 12.339796480738082 19.31105867975703 31.73285177606513 0 0 0
3815 1 12.308475308957886 17.598122813179256 33.4857574157758 0 0 0
3780 1 14.0719518979519 15.860984891502955 33.45247136807361 0 0 0
3817 1 14.062393186021472 17.564843916209632 31.707131345957514 0 0 0
3820 1 14.08842376861108 19.333606374310936 33.404553312651345 0 0 0
3778 1 15.854076658264754 15.838541722484129 31.706206035487256 0 0 0
3818 1 15.825594161033774 19.39817820253827 31.693212678000766 0 0 0
3819 1 15.832949538108462 17.611544772482688 33.475615195586705 0 0 0
3782 1 19.386605323502994 15.808297700854336 31.678649734137384 0 0 0
3784 1 17.58138225547783 15.846438747504138 33.44802555499048 0 0 0
3821 1 17.58465544933734 17.620840619296605 31.69789153852512 0 0 0
3822 1 19.35358372000806 19.33270911393758 31.657621708408378 0 0 0
3823 1 19.381711513164284 17.65101245971453 33.43221590365771 0 0 0
3824 1 17.603949114480276 19.347477884843155 33.436393097230756 0 0 0
3786 1 22.892511705547708 15.815716285082239 31.681143745816303 0 0 0
3788 1 21.11194850781542 15.856747694253974 33.45226031834354 0 0 0
3825 1 21.126940102640308 17.592790005049615 31.689981525527056 0 0 0
3826 1 22.940760503113907 19.39365307868628 31.635701407521495 0 0 0
3827 1 22.869402405964166 17.634602489311103 33.374123519230096 0 0 0
3828 1 21.156236899114873 19.367064531279595 33.361339478193614 0 0 0
3790 1 26.418447372355484 15.812328674283219 31.657662870436422 0 0 0
3792 1 24.668762208926786 15.866881772615702 33.48155785731427 0 0 0
3829 1 24.659388732641744 17.559494571402666 31.633588601388347 0 0 0
3830 1 26.43102845022711 19.360217082581244 31.68428855389582 0 0 0
3831 1 26.40208677163977 17.59445904529439 33.41487027126414 0 0 0
3832 1 24.631135113151814 19.346037825860243 33.4175730105809 0 0 0
3794 1 29.893021668454132 15.85159155847472 31.676880201264456 0 0 0
3796 1 28.190083262346203 15.825724369615742 33.41338657082342 0 0 0
3833 1 28.183881012899974 17.605899946309453 31.64269048874472 0 0 0
3834 1 29.905122281866866 19.394402364401326 31.722622292967984 0 0 0
3835 1 29.91462202751766 17.583923739433295 33.424975930954744 0 0 0
3836 1 28.185232126654512 19.340328280975648 33.43875624941849 0 0 0
3798 1 33.45469651279908 15.810852747103095 31.68588123727801 0 0 0
3800 1 31.66867533115859 15.822062607741666 33.44886495110507 0 0 0
3837 1 31.692811546631596 17.576124585949035 31.72241286004879 0 0 0
3838 1 33.41999152380171 19.40451322267326 31.656158713040735 0 0 0
3839 1 33.45270292309102 17.57201013260652 33.48462174161537 0 0 0
3840 1 31.63956568986361 19.368071178181882 33.44095068168251 0 0 0
3841 1 0.013407932032568038 21.095027755565663 31.662751055811615 0 0 0
3842 1 1.7728071220171187 22.88385685223432 31.69622679063691 0 0 0
3843 1 1.7734061739402762 21.09427632318489 33.4587121065409 0 0 0
3844 1 0.04343391889481682 22.852198197249876 33.44146026509619 0 0 0
3845 1 3.575855525192683 21.081672866270935 31.696327608429826 0 0 0
3848 1 3.5162881766447605 22.918088896348955 33.4669715100548 0 0 0
3846 1 5.307676627020543 22.884417510663358 31.71549614503906 0 0 0
3847 1 5.265429916683298 21.15013164269705 33.47405470931042 0 0 0
3849 1 7.002098889448334 21.139185613728273 31.702303434984504 0 0 0
3852 1 7.063290169387741 22.912600623239744 33.41602718651085 0 0 0
3850 1 8.804782903235456 22.914895165033812 31.678057258417486 0 0 0
3851 1 8.803332206264018 21.13223910066692 33.388343084801065 0 0 0
3853 1 10.570900286259699 21.116247781687363 31.690279815914536 0 0 0
3856 1 10.555683049287305 22.876470741269696 33.42055998625136 0 0 0
3854 1 12.298292466061962 22.8825437655412 31.697678316657573 0 0 0
3855 1 12.34600456950687 21.14544767008774 33.4491519786594 0 0 0
3857 1 14.097224937040775 21.157291646549464 31.70955500944621 0 0 0
3860 1 14.04974668237578 22.893505346731082 33.46094143619147 0 0 0
3858 1 15.821359537750347 22.889696755976093 31.6537284615991 0 0 0
3859 1 15.863314671328098 21.092301751240264 33.413307086235704 0 0 0
3861 1 17.630580937387837 21.120384728041465 31.610392387437823 0 0 0
3862 1 19.37529766664451 22.907356461570643 31.64128133470312 0 0 0
3863 1 19.328771759464697 21.14329433703438 33.44233169490754 0 0 0
3864 1 17.56931322916301 22.818503845760173 33.46299325607782 0 0 0
3865 1 21.130894906429674 21.12028666609867 31.685535795563638 0 0 0
3866 1 22.88254815368214 22.8413434973778 31.724641334370578 0 0 0
3867 1 22.913607977509383 21.112658912502873 33.421616498279036 0 0 0
3868 1 21.081137055275562 22.915480221728824 33.423366084644115 0 0 0
3869 1 24.623252454418445 21.13052421930299 31.69954560576306 0 0 0
3870 1 26.3960085447457 22.89595704879457 31.70767735238526 0 0 0
3871 1 26.421726131199563 21.094207851770662 33.4492717899926 0 0 0
3872 1 24.66874946653727 22.915487804356445 33.443826437053886 0 0 0
3873 1 28.1416789637941 21.114297024696253 31.687830800130072 0 0 0
3874 1 29.91274130363386 22.92860697026602 31.675781912958147 0 0 0
3875 1 29.914892966041368 21.129554877053092 33.45466663355916 0 0 0
3876 1 28.17213566581984 22.872586545369536 33.3776968656346 0 0 0
3877 1 31.606175366264125 21.210076738351383 31.69883119306499 0 0 0
3878 1 33.432361185944465 22.845769682080334 31.667730711106405 0 0 0
3879 1 33.42689007151796 21.120744814546942 33.3830224368165 0 0 0
3880 1 31.69026200954342 22.85705891270842 33.463872714374 0 0 0
3881 1 35.17505183717732 24.630064604210222 31.731290103224346 -1 0 0
3882 1 1.7322920675556184 26.386309001483003 31.6536146874628 0 0 0
3883 1 1.7661422701994987 24.659775728607723 33.41189832519982 0 0 0
3884 1 0.039443892795852746 26.414049149381807 33.43393015231708 0 0 0
3885 1 3.5363216982216046 24.64181010889591 31.640402177690166 0 0 0
3888 1 3.4878027026454737 26.407713564744896 33.40033803767623 0 0 0
3886 1 5.285658711940257 26.38553743469377 31.720275357722194 0 0 0
3887 1 5.256196076857758 24.615460680030406 33.47487378586335 0 0 0
3889 1 7.033918447813764 24.626754101398166 31.702123534286432 0 0 0
3892 1 7.080531404039385 26.386611054085026 33.45383636562982 0 0 0
3890 1 8.848301293870662 26.397218697731216 31.69809535659331 0 0 0
3891 1 8.792683543393919 24.677919690445258 33.43779849585133 0 0 0
3893 1 10.532394761690284 24.656755065240525 31.652980207823507 0 0 0
3896 1 10.59090746410858 26.417433584932798 33.43903429778714 0 0 0
3894 1 12.298649463062686 26.393093674170483 31.68537342262548 0 0 0
3895 1 12.307075961791963 24.642789701104302 33.42762421212377 0 0 0
3897 1 14.103617531973224 24.62488614601972 31.714299198229668 0 0 0
3900 1 14.06782602581998 26.407621029185787 33.432409535846794 0 0 0
3898 1 15.837144320281272 26.425772291885842 31.664185737178837 0 0 0
3899 1 15.831174681548262 24.627480935205746 33.48106966980502 0 0 0
3901 1 17.557163375764098 24.668867168942363 31.724112187182705 0 0 0
3902 1 19.40327825045808 26.4327773956119 31.734783906841923 0 0 0
3903 1 19.383888557289616 24.64486498289892 33.449282967697116 0 0 0
3904 1 17.61158337021285 26.41687969232185 33.45278343447607 0 0 0
3905 1 21.12875218527985 24.640876877428393 31.6733319366075 0 0 0
3906 1 22.897628435870796 26.383042274828494 31.626663756072592 0 0 0
3907 1 22.876194254089288 24.643049785743766 33.429090466408894 0 0 0
3908 1 21.143385618226965 26.398197476312088 33.41569141349579 0 0 0
3909 1 24.6172745046925 24.649929962695605 31.663900606358204 0 0 0
3910 1 26.405009496471074 26.364273841255603 31.69528389116298 0 0 0
3911 1 26.375232548580414 24.629357527015085 33.48427939597126 0 0 0
3912 1 24.59612596555671 26.422420929471215 33.41251701045818 0 0 0
3913 1 28.183726661390665 24.622126314388844 31.682724051778017 0 0 0
3914 1 29.90033506785511 26.4114007358433 31.745757209488893 0 0 0
3915 1 29.946396707431116 24.62421191996172 33.44918695526676 0 0 0
3916 1 28.12528534649975 26.401175422681888 33.43417267901371 0 0 0
3917 1 31.643750771824845 24.654438844083508 31.680117421867504 0 0 0
3918 1 33.37229444680587 26.384478771351194 31.69893063921222 0 0 0
3919 1 33.434382836683554 24.624041063006153 33.436501311562765 0 0 0
3920 1 31.633000310920554 26.38718765276731 33.459408296673274 0 0 0
3921 1 35.19361099715517 28.140481649957163 31.703508235753553 -1 0 0
3922 1 1.742441957711579 29.95742891648061 31.76021365247229 0 0 0
3923 1 1.7517672952618113 28.19429117452828 33.44572893871413 0 0 0
3924 1 35.16328982303024 29.87529776888212 33.45812085148777 -1 0 0
3925 1 3.535005156406228 28.12255283877338 31.67342555131326 0 0 0
3928 1 3.5510976559224763 29.935238146174267 33.436017580510075 0 0 0
3926 1 5.282141826899317 29.940599544899552 31.656329244940803 0 0 0
3927 1 5.283684867723775 28.15840043917374 33.434303098629 0 0 0
3929 1 7.0092561905070365 28.191573581854485 31.689360419358596 0 0 0
3932 1 7.067552955925862 29.890849885654813 33.460123183182795 0 0 0
3930 1 8.789969623536761 29.939608708669518 31.70752677621731 0 0 0
3931 1 8.7607645670974 28.153711269096505 33.409045917934975 0 0 0
3933 1 10.571943850321878 28.16844555576364 31.68206754489395 0 0 0
3936 1 10.573474825857948 29.933456012202452 33.435336931698565 0 0 0
3934 1 12.272707962428136 29.874714114476216 31.700015054000346 0 0 0
3935 1 12.334921484805063 28.138151069926533 33.4282296327076 0 0 0
3937 1 14.038664992145074 28.18436992123346 31.664533350204465 0 0 0
3940 1 14.118512057030909 29.896128766194273 33.459452516404745 0 0 0
3938 1 15.8272192210833 29.86923901922635 31.64890445563387 0 0 0
3939 1 15.84818837949048 28.125813304672814 33.43906358379263 0 0 0
3941 1 17.614621987365506 28.127533343090587 31.651814700486838 0 0 0
3942 1 19.34665426865283 29.93499760474598 31.68735935588638 0 0 0
3943 1 19.348220694951635 28.110050827241864 33.46393585085434 0 0 0
3944 1 17.56884832061879 29.863255431809637 33.44418848692751 0 0 0
3945 1 21.083586744303943 28.210174505223986 31.654310572126253 0 0 0
3946 1 22.920935313377313 29.943496075895794 31.620703360957858 0 0 0
3947 1 22.89397625239447 28.16691977538313 33.40345383791328 0 0 0
3948 1 21.09998552206134 29.974072015775064 33.45543659135631 0 0 0
3949 1 24.633545734151692 28.14340855049426 31.665614168407945 0 0 0
3950 1 26.406345367659473 29.964526830351254 31.662559843421196 0 0 0
3951 1 26.393545011917873 28.17638974350145 33.447105840066804 0 0 0
3952 1 24.55940132777424 29.956721944775932 33.402525210973764 0 0 0
3953 1 28.183413904710424 28.170930904229664 31.69424587949807 0 0 0
3954 1 29.92662016498976 29.926972863012487 31.703225557838934 0 0 0
3955 1 29.969428166554668 28.18155099857106 33.39703470673567 0 0 0
3956 1 28.1312173131583 29.92980061200195 33.414132101356344 0 0 0
3957 1 31.64694185058563 28.17125756370528 31.674992458066455 0 0 0
3958 1 33.42324334731359 29.912264213386823 31.676210825596225 0 0 0
3959 1 33.42871214368128 28.177341298870807 33.411223713486685 0 0 0
3960 1 31.63976023426658 29.913230414655374 33.46783653775126 0 0 0
3961 1 -0.00041528695131164074 31.638364997806974 31.668397964275435 0 0 0
3962 1 1.7570750106388078 33.44765987821455 31.718053187290522 0 0 0
3963 1 1.746899406502354 31.657695716504556 33.401414421298206 0 0 0
3964 1 0.004395749003198883 33.425113694247386 33.48526822119982 0 0 0
3965 1 3.4727679215061107 31.71181502307585 31.69978513499505 0 0 0
3968 1 3.5286712401815503 33.46453646220337 33.43819926707159 0 0 0
3966 1 5.2265545249061365 33.403694302972234 31.637865127540856 0 0 0
3967 1 5.303576208103195 31.652327843375108 33.44069505747884 0 0 0
3969 1 7.031347753523574 31.65920843402536 31.69244711014626 0 0 0
3972 1 7.071320482031019 33.445788313635155 33.443088421272826 0 0 0
3970 1 8.791857719125707 33.40737540450621 31.678539469550866 0 0 0
3971 1 8.758393794907846 31.701113203962894 33.445608842157384 0 0 0
3973 1 10.586323023718954 31.661421997526727 31.65661635439896 0 0 0
3976 1 10.592465597965981 33.40862370552872 33.42100320533304 0 0 0
3974 1 12.246804280106204 33.47989526771565 31.64383003611463 0 0 0
3975 1 12.275010199027351 31.67774453729949 33.51308928632936 0 0 0
3977 1 14.092817513196163 31.66263487511922 31.704752071746405 0 0 0
3980 1 14.071744182341407 33.4432802059581 33.41781527889619 0 0 0
3978 1 15.87592049102349 33.44248484370915 31.678136123437802 0 0 0
3979 1 15.823394077774488 31.650711803326665 33.47836480326852 0 0 0
3981 1 17.606495243491818 31.633165142213908 31.654680884822213 0 0 0
3982 1 19.375248345283026 33.45629323003219 31.733947032700733 0 0 0
3983 1 19.329725799473586 31.70089696052261 33.44017329302969 0 0 0
3984 1 17.581273646935834 33.434559598100606 33.44998056989693 0 0 0
3985 1 21.11681024793798 31.652602721709716 31.706901545616986 0 0 0
3986 1 22.86344540571764 33.43206988576872 31.711538399534383 0 0 0
3987 1 22.930063754493055 31.68307195698096 33.45047935295984 0 0 0
3988 1 21.11935627705487 33.41264513883048 33.50241904170311 0 0 0
3989 1 24.663749167804703 31.636297607256893 31.68160076806448 0 0 0
3990 1 26.471495927491574 33.464242388759565 31.66029676843569 0 0 0
3991 1 26.403473895207096 31.647786300673488 33.42537708226189 0 0 0
3992 1 24.630809426829554 33.457015067386244 33.42072139567657 0 0 0
3993 1 28.18346868712943 31.654845827710876 31.69246283812776 0 0 0
3994 1 29.966759761526497 33.43644100587846 31.672262987734822 0 0 0
3995 1 29.896771642898656 31.701122019747487 33.415938058498554 0 0 0
3996 1 28.19231646453566 33.44941638006532 33.46140619515691 0 0 0
3997 1 31.602971091297423 31.701540300868924 31.688256809056146 0 0 0
3998 1 33.44796178430905 33.44302292404563 31.704661725010865 0 0 0
3999 1 33.478280565744065 31.638103192501717 33.42717993361423 0 0 0
4000 1 31.69746598761811 33.437729822410795 33.468344582831136 0 0 0

Velocities

1 5.224529706634601 3.562083230840013 -0.9411072653823203
2 2.868437962236185 -6.238945726726195 -0.6153521465945619
3 2.0977016886891984 -0.36330251388105944 6.442928215922873
4 -0.8000102832770121 -2.5145334817392753 -2.8002905907740354
401 -1.848759399919446 -1.324268146082978 -0.8687596184771498
402 -2.567080158639897 -2.4680517126029153 -0.1590330152751959
41 -0.05750002083028921 -2.899394762328944 0.2699305246162263
43 -1.203939049384005 -3.216437180648404 -0.48703566947543364
441 2.261601506847577 1.64591097781905 -3.8520071818297366
5 -3.3042766233323433 1.4242432534490543 5.301179476050091
8 0.15504591479237734 -1.179194924198742 -0.700606240451694
405 -3.871580255458722 1.3623963416057099 3.348302066583509
45 1.6142932047057519 0.44458753976326215 -2.5665484519972623
445 2.741965571752008 -1.9722114331570963 0.03244936337127662
6 -0.660928371801206 -1.7946604335368403 -1.3916259432032902
7 -2.884730174883553 -1.883182658547836 -3.1427157103294574
406 -3.499508285688877 4.901597222948586 -0.18651115318011977
47 -1.4339807753195022 2.6396868598223153 0.3667222496217271
9 0.43111446547346743 -0.0379146208636867 1.6159740189633454
12 -0.6140191218012248 0.8987062656136542 -2.1514819538350953
409 -1.7101892386115138 -0.6922674823457288 -0.4913193822100647
49 -0.46042577692195197 2.707283605401386 -2.5835949892841157
449 1.327914088623353 1.6451882598193204 1.1499922929932764
10 -1.4158175781756561 -0.7885926103399026 0.43298880615095475
11 0.573306579860718 0.611231714551459 1.9038252157687123
410 -0.6306624968329108 3.402694616825323 -1.7269614405172442
51 -0.36001155127971873 -0.28359118678924466 0.20697971752787245
13 -1.0631903343340077 -2.581250444701087 -5.1101918616575785
16 -2.107109347268652 -2.486656511001604 0.16622000751093285
413 0.5535290211318944 -2.52973904636246 3.5754918877554487
53 -1.6154724199684203 3.9489180218649644 -0.1845626703103782
453 -0.8083946498094452 0.9519204087101006 0.7013743872238428
14 3.5156043678858535 1.1525382219486353 1.294710133303084
15 0.8861579530409364 1.5283316639283873 -0.4315008641859414
414 -2.775740505672776 5.311787293430837 -3.5467292591094086
55 4.665501020967834 -0.4646242011731176 -4.444633942942957
17 1.4109751789910843 0.3887339067652088 0.7997137039425299
20 -0.8864965480893203 -2.651102219409331 -3.377427994605221
417 1.0357431574249856 0.7867974913730518 1.6324338019489801
57 1.172112163568977 -1.5710606604260093 -0.972378304028078
457 2.2553747750631756 -2.902539296786786 3.2097065704695327
18 1.3256238967207525 -2.5057752793857038 4.463161953456711
19 1.9880979213590135 1.8043928807906933 1.4984720306713544
418 0.4759841442573505 -2.940559838364758 2.095407221858512
59 -0.6030307173924828 2.594705433941499 -2.5448351587114706
21 -2.064244717984127 -2.782371500589034 3.0515815473448753
22 -1.0787695070119248 2.2471793746166546 -2.0172997113018907
23 -2.543448232245218 -1.865127291120742 0.3077439767878311
24 3.6330086838110396 -2.2814529125805603 0.8004890715435306
421 0.9436240071859838 1.7953977498702611 -0.19688126212163246
422 -3.9650889635124056 -3.746197480115963 3.1304839366755792
61 1.4409362142808586 0.5969638895666658 -1.9742544587182342
63 -0.7165725413173158 -1.9269512451011346 -3.4091039003178762
461 2.58719696216129 1.852862710615044 1.1774866516750722
25 3.1299689459328204 -2.5351675150920534 1.9223972544945955
26 -0.2506543681896342 -3.3536797119772297 -2.560846923759689
27 1.4742185008824524 -2.2990323673949877 4.033033933823474
28 -4.748005838255904 -1.9049693539029486 -3.851266675208457
425 1.172176143150611 -1.0973589029312145 -0.05913150727642
426 1.7326171454481256 -1.1207961802418656 -0.7574175451844861
65 1.2003477711731385 -4.2165884599328365 0.07115256215883517
67 -0.17241390296189432 1.505264925713763 2.5536379316532756
465 0.3862404367952709 -0.013049464026254499 -0.9889400356315284
29 -0.11581485964775862 -1.9631333992401017 1.6343147782980085
30 -2.6329897512978278 -1.0084271870552013 -2.1180800925145737
31 3.2593321445827255 5.127930171726504 3.6513454364130085
32 -1.423791387765846 -4.228892108428931 1.8837172552283143
429 4.989453612071029 1.290858241652003 -0.22703879398456012
430 -4.323135780665938 0.21177947720602874 -1.697786153445068
69 0.5930082662703383 6.688619396854337 -2.047126745153884
71 -2.968388341827276 1.5631963717870752 0.8419434265738409
469 -1.5241471643407922 -5.608922098523139 -0.07025280471412744
33 -0.7413493565812113 0.4155409055162395 0.34057881033555104
34 -0.5182160880474596 3.2288840159774725 -3.598847020966994
35 -1.782136689293759 1.0870074265460892 0.9714622758816746
36 -1.5851245460056849 -1.8376950176206326 0.9440474546265935
433 2.2200999437879854 -2.6359710638345564 3.177905579265926
434 -1.5907323464771308 4.461552048893377 0.35468516645266107
73 -0.8576351406520247 -0.7943959979736551 -0.22432958446244242
75 2.7920946473950043 3.5744768189390643 -1.2990293922897684
473 4.957924945385114 0.005244712979253095 -3.0278192473488446
37 -1.3813450873894817 3.636057329861715 -0.5174434062436648
38 -2.955600076685578 -4.689567299526268 -2.9687625251257725
39 2.7936744541324074 2.0401672415407015 2.9033126949040144
40 -5.356449797564986 0.3779184058502547 -1.8931198953021704
437 1.0966536867382506 -0.060388501720208085 -0.949263290238796
438 0.7969427622417549 0.841071329390351 -0.3701842355397229
77 -1.2737356370604984 -0.37588654276209815 0.41852461103033733
79 1.21219081927024 4.186813574403111 -0.7481253983748853
477 1.1433907219664028 0.20079066157235995 -2.1231321636351175
42 -0.13944962888892018 -0.4135986945683794 1.7646447989416127
44 -0.5731140313046831 2.376006066880656 -0.4036649893374079
442 4.255198706183412 -2.9588647624127473 2.3977069073081174
81 3.053285571180646 0.4099374605780815 2.9513419311648907
83 0.4790808739524693 -1.274051801421467 2.38290683984187
481 -3.132674361379661 -1.7249088283184173 -3.565663627973528
48 1.4428761811175868 2.6683155777288388 -3.0689337839401323
85 -0.0007297424126908473 -0.39781946636378196 -3.5624731001696377
485 -3.126676673994035 0.04287751662049219 -0.11364028504631568
46 1.269105333545957 -2.9448602640190313 3.671477158888244
446 -4.316278101140749 -1.3113322617800507 0.2974310252381704
87 -2.067079801913441 -0.9650757224365125 0.1987692792022584
52 0.3406400528134005 -0.9385884790045805 -1.069012595588918
89 -0.2525732500460241 -4.765687953240576 -2.7051055563108726
489 -4.013037913048354 3.4621708602684116 7.6528006982356445
50 -2.5754878961088257 3.0553388613872294 -0.7081704291264792
450 2.5354785326670264 0.714058220123003 -2.484414653021851
91 -4.135687520879118 -0.10420039585094117 -0.46534133082118007
56 -0.5722749994414733 1.2221045343529078 -2.5775011708473765
93 -0.17181710818613116 -3.1852669878464783 1.511831168752357
493 1.3833733017138945 -1.4925486994062462 -1.9391534418038088
54 0.7073363636344806 -0.6854866714899802 2.719264699528563
454 1.9158813785601454 2.6004493417010384 -1.3801737304348136
95 -1.63390702561911 -5.136264337305352 1.8067090261868841
60 -1.6450005752554793 8.432649894647254 -3.418451281860146
97 0.32357630562228423 0.3922957351997644 -8.36917117890082
497 1.9547552503664416 0.4911348793885025 -1.0111418263265146
58 0.30277709198025676 -2.0910393206693967 1.1925634979595905
458 0.9133537848002526 1.255650201756123 0.8380849090158488
99 -3.3165379339388554 -3.962535194614129 -2.1519886839747624
62 -0.8766813787027363 -2.8056028521493417 -0.7785396457644691
64 3.0067205472736553 3.280311401213014 -5.1184152702469765
462 -0.6896717294241536 0.17993201902301295 -2.316991484672044
101 -1.1464092603122291 3.216405033120236 4.60709422596761
103 0.9604384823524375 1.3603863621732328 -4.529376023237455
501 -0.735601246214675 0.7811352702614087 0.11964182027643247
66 2.9561034126082575 -3.2333250685538006 0.39723206119489746
68 8.461681944799611 -6.047878647454743 -1.839497289908994
466 4.021735484342448 -2.828765964635665 -6.20376034014545
105 -3.1980832201997513 -2.806581918336782 2.2824588922506375
107 2.1421933737260983 3.4622272353006696 2.9878196743956247
505 3.510358336672843 0.5181432420668761 -0.25026560340181736
70 0.9015634888810614 2.651951972745413 3.1769099914607453
72 1.0084469388217865 -0.607726444997881 0.5350763266893523
470 3.034844067965083 -1.3251485845837856 6.589800389077226
109 0.5419340278807527 3.224018529699175 2.8622923659267605
111 1.7067416253830803 -3.3072154006491963 1.160251810290693
509 -3.2707885081959787 -0.21466590316162878 0.9600354793711029
74 2.4036378152925915 0.5182762011142443 -0.15261261998858877
76 3.278249656218752 3.184503710848151 -0.9082491203944203
474 -1.1476937400169849 -4.567615268511021 0.19077349621696615
113 -2.8804145030181916 -4.392917734239506 -2.8585526902824454
115 -1.0326920747173636 1.6082454934011396 1.1428023792290243
513 2.647415210173263 -1.2598171098720978 -1.9388615103469449
78 -5.699562519499991 0.934195539330767 1.384026972992024
80 1.320269908527367 -1.9389343720539443 -5.250546551376844
478 -3.1601709658929913 2.047658510454408 -1.6560143576252042
117 -2.8959146848023534 -1.9170576083564423 -4.559366149451198
119 -6.092460367730689 0.6475111379859769 0.3424258681263472
517 -6.034095040842115 -1.532325780437551 -1.837113115175424
82 3.6178503007941694 2.1265497994842733 -3.5217362703389674
84 -0.7773159077239077 -6.734303435422042 -3.61685765207252
482 3.9906985677517057 -2.230895029395166 -1.607324064743789
121 -2.816688580145734 3.1933712372792784 1.4330127842584912
123 -3.846245386072227 0.23466978323283977 2.0953080394673136
521 -5.51636860420358 -2.4756627212412705 -4.861805845515122
88 0.15594669954326226 -3.4987185305941906 -2.0400794790844397
125 1.884821199123665 -2.3442752657928536 -4.341496661820728
525 -0.07912789246137218 1.447765388325756 1.825760056209273
86 0.013897185731518968 2.0694379959167444 -2.6736413661007665
486 0.25754156436274533 -1.0313137179344438 3.6147749831735956
127 2.418735876271287 1.3762798144781223 1.4495499948232755
92 -4.8064813031481775 2.354436211874594 3.160839161664646
129 -0.5410278341106309 -0.7615516345551614 -3.754259684221434
529 0.3711346640621858 -2.791456761797599 3.368599982865352
90 2.246204571151012 -2.7307579134434548 3.3925031277656106
490 2.0379399446617934 1.8649082196632063 1.033867378785963
131 -3.6033287128411375 1.3151930744002083 -1.735462907390317
96 5.450589146571449 -0.5037852094387735 1.8049446478669102
133 1.8843491392874685 1.1719893910206056 2.2999069994532224
533 1.9712694093035945 1.394436540815828 1.4626651019558126
94 -5.117004136311166 1.0655546213188436 0.3413809669632102
494 3.500576183091953 -1.1727325954028733 1.139348437142802
135 2.404319782255225 -0.9393176459478576 1.9278153376610758
100 -0.3747788051546909 0.1834878446639725 0.29352626224510414
137 -0.7474772521681439 -1.0867589842521863 -0.8268892026961795
537 -3.0619896926766077 1.2604859258776606 -4.19587863096214
98 -0.6062929005011727 4.415119769713523 -0.03941436556840538
498 0.6460693064617407 0.23685468775366322 -0.8877020192642858
139 1.3239566374080651 -0.02559297865883732 -1.5352981756794342
102 -3.6101537474075567 2.862403699296281 -0.772712916406103
104 3.3441609198403808 1.0504862656876264 -2.6420896761214605
502 0.1257187529370458 -2.066588155885601 -1.8493186800553478
141 2.5503949949619953 1.4630662812403172 4.0795582056537185
143 0.8469283465058113 -1.7173701001840347 0.11034607205031409
541 -0.4700828988231167 1.8764060549200943 -2.032938379184964
106 -1.2264497091517008 0.00925940548177987 -0.4217179518454115
108 -3.822231252121971 -0.7378183761315923 -0.36571447670104934
506 -0.9615062635279645 0.6352208582242722 1.2258463794769034
145 -2.5674858176375834 -0.6677901746193856 -0.2307312174594148
147 -5.0183708771940125 -0.9566861079288645 -1.4111094670645024
545 -4.620920181460705 4.904985441630173 -2.781599801895077
110 -1.9822046161975828 -0.30351105682701984 -2.1050412980880497
112 0.7535672137915408 1.100386015851348 2.378454109662284
510 -0.15525587425940002 0.9990033977119713 7.150255676452443
149 0.9181524801144416 3.0381239713675963 -2.4587858295814935
151 2.276742577241458 -0.8995469113953332 -3.5434221952943106
549 0.4016554931706205 1.1682645191506174 5.400477740065617
114 2.1802770593394842 -0.3101117436532161 -2.0463374847145914
116 0.43762407584249347 -4.042741343049094 0.9912030337984413
514 1.4771017226482988 -2.5125410074601415 0.4808174174603033
153 -1.1156944675931997 -0.3038194599908722 -2.420277497791983
155 -0.9598091753748212 -1.6531278640563933 1.8041522837145105
553 -2.1002266415149498 1.9447202906158785 1.480535849067303
118 -2.2830287895007046 -0.9701305703772259 -1.0098262538581348
120 -6.729658703412911 -2.088113291586715 -2.569681902187371
518 -5.300935673848566 -3.525480896166973 0.14378910361461328
157 1.2233476421988354 -0.2523264531298036 3.731013136148691
159 3.4594409068605723 -3.7135881348789614 -0.674976291299722
557 1.425780791832493 -6.568593453984623 0.017960737495037224
122 1.5535662916332826 0.49787589183992675 0.9504642083569262
124 -5.908436666621291 -0.1019696127986629 -1.107596608644072
522 -0.7630430751345637 1.7348959304307388 1.2131596179715771
161 -6.318040170723375 3.8838548335676717 5.259919074032933
163 -0.7473702086500337 -2.42847530337105 -0.830452649637901
561 -3.9648538366005015 -4.328319412710268 -0.4140825480974296
128 -0.326840414237035 -0.14547505715675543 3.884294216143776
165 5.0224619575546 3.374293528028626 3.4317850669285397
565 -2.0181679623913595 4.559592509956949 -0.7733495655099822
126 -2.5154931397214955 0.09002130640848156 -2.5793447284464586
526 -2.2087288507068377 3.5218881554232575 -7.864509703253601
167 1.5823044927667094 -2.4719697695699154 -1.3592702588924825
132 2.2226100518029193 2.1112110034324982 -2.0634771331559256
169 -1.982365822373598 -0.4111287190842253 3.3597427976522116
569 -1.9803128656718356 4.510425163167981 3.2671237252332093
130 -1.6412886114417138 -0.5422100919076464 7.131050515322512
530 1.8744736355099432 -0.8105748001457039 3.7748304746103085
171 0.29919181764834646 -0.0296320481803227 3.2636601036199417
136 1.4103109535121265 -1.8574016041075596 2.8856133105417356
173 7.081440820963027 0.008215838294850732 -0.777719517421286
573 -1.7838730903564894 -4.01061581154283 2.901472652305257
134 -0.9965592284289839 2.7940321786929525 -5.053491749179059
534 -1.8850361390469679 -1.011648265443159 5.025358462183225
175 -1.9771804810147073 3.2784490724792232 0.2422022322570902
140 -2.414668125549429 1.3333809413718016 0.08440095277319318
177 -1.1415049764228533 -4.841288601618333 -0.09128102126094292
577 1.1728299924581909 1.293977719567575 0.10100772804289347
138 -2.340161979102955 1.6467477164030457 -2.631161185327295
538 -7.472916410328193 2.8308918594989 -2.6567848786180357
179 -1.456137620663547 -4.8379782240237965 0.0908363954159478
142 -0.834585799214225 0.29895276698596046 -1.0487585287441525
144 -0.7878963534170476 0.0599542468400103 -2.86258537799699
542 -1.073125217454995 -0.18034040331632778 -3.233928639529201
181 3.4823034048242927 -0.23532421945000803 -0.870538642537333
183 -1.6163797043027093 0.45052820162894963 3.1774468039020536
581 -0.7902266000720773 -2.463325117183204 -1.3065237767381717
146 3.589482162546558 1.0602649575148528 -3.4077256536281473
148 1.253064514135679 -0.17852621261723098 -1.143347374190938
546 -0.7775375316104715 -0.8735880110441888 3.0983871951580766
185 1.6870147562259148 -1.8648715477263789 -1.217981926435882
187 1.2447901336076932 -1.8173560664613644 0.3286370977803234
585 1.7984275677474162 -1.6734738380963188 -3.93904847231033
150 1.5089833315455556 0.8794975860263454 -1.2864710252387779
152 -2.775905770184868 2.7563869173207127 4.010011087847444
550 -2.292740134955568 -4.082014437753866 -0.3199655742667176
189 -0.6679772342289761 0.04201890868172378 -3.8396253513614202
191 1.3239784286620755 -0.24841032650885675 -2.5773586301415974
589 -0.6208191048880175 3.981032840406495 -2.2241824940140287
154 0.28944416534897327 -1.2320426720544115 -0.6913156825013923
156 0.888486698173495 -3.795991949777473 -0.8221106838977167
554 -1.9572544609892533 -6.7762867078765385 2.1757212566122677
193 -0.8354343861493978 -0.878979117125321 -2.83029086327379
195 -0.2753303097414364 1.7276241195456008 -2.191862631041071
593 -2.164682728015071 0.3084243076437552 -1.8382440124496544
158 -2.2622042865305607 0.8902918853843126 -0.5375281971207779
160 2.4747706305317823 5.059435374612809 5.474685710859061
558 1.445545550773808 -4.237061977929542 2.282664794400816
197 -0.92788617756479 2.7818008255755395 -4.643808483390057
199 -6.0474462383186 0.3731869296659265 2.943031537938087
597 -5.694804201641639 0.5345295750478017 -0.9593665892868054
162 1.3635677506970554 2.4942375850755987 -0.5923398112785399
164 2.743586539366932 -0.2027389925462567 -4.036174428094839
562 -1.1453330200075444 5.315378843570032 -1.5146209544549767
201 -0.8836244840123473 -1.1694654824533046 0.2991217149383329
202 -0.43764254039464195 -2.698233676001245 0.4336003878667315
203 6.00675683432147 -0.2614924728486697 -2.029026274296873
204 -0.6479109002056002 1.6348696407132304 -0.24766524826383318
601 2.3725908634450787 4.61290902306916 2.132621433309912
602 4.34055501733025 -0.7257089200842755 -0.1165802428097581
168 2.166233324502354 -1.4712345441169572 -0.6665471742096104
205 4.838397467051363 2.117452430015054 2.326599117427617
208 -1.3796540597761675 0.22174002104245974 -2.307261792576529
605 -1.1815852938155327 -4.720838010640978 5.0536275412040546
166 1.8315149940504156 -2.6771166965342212 -5.073222889422095
566 -8.03684440623824 -1.6490587746982581 0.8581385417326453
206 0.246150739829326 1.9208198453043344 -3.1758101634356093
207 2.861561747618881 -1.4855369293711278 -0.3178205498852831
606 0.22014868866871207 -2.907567561633218 -4.304735388998607
172 -5.1213039633750395 0.7201120653094241 -0.6743579118175361
209 -2.3729772984389097 0.1371424536928176 3.6913644957089597
212 -0.5820688931869179 0.16784322157096873 -5.038819938695949
609 0.17193385237366468 1.834075577608702 -0.19476547566229124
170 2.4378657033891167 -2.140800363812718 8.04478949271323
570 -0.23422457711232672 1.439389148222441 -1.591504511521961
210 2.138792470396164 0.39808838400971003 0.010711811058089448
211 0.01120895005940432 3.77597859518776 -1.8223116580568754
610 -0.44895319804874195 -0.661660707708375 1.5922418798486893
176 -2.364392790964858 3.384506196348961 0.6027750298492817
213 1.7345141039660164 -0.17776287799864432 3.3434375682244224
216 4.319515820929583 1.213095299537563 -1.9220361865775146
613 -1.3159752312868718 -0.4861287646196051 -0.7822227472023386
174 -1.529237957497033 -1.4462936320996227 -0.2674373642132953
574 1.0587461972616554 -1.0911953908320504 -1.1025978875756937
214 -3.945593322920456 0.08509019406932777 2.735878184010536
215 -0.5793594772957124 -2.039801591363199 -2.469166303116438
614 -2.0876716833843796 0.9678030828386411 -1.5217211682935652
180 -0.09187924350296664 -1.843343319245309 2.5400294025075647
217 0.8614264930438438 -1.7401804952192725 4.475181129949099
220 -2.0200727785839985 -4.085836520277061 0.71312852326908
617 4.217648250453363 -2.238949908555009 -3.4025430997912713
178 -0.4182613078836034 1.548498179374109 -0.18230055486850186
578 3.170247051652597 -2.624529050912718 -1.8722617182241057
218 -2.8699175595030417 -1.3256932962103882 -1.7015492534631342
219 3.7852879438236346 -2.557256078588345 -3.708651271099851
618 -1.6379587763986883 2.256347170806841 -3.1575795284558152
182 -6.841700613661167 -0.9992695851903232 -0.8584888063872425
184 3.12527416258355 1.6009424334522036 1.8687938364151138
582 -0.14431030880237036 0.5680694184427408 0.9359679036693325
221 -8.0913617972719 6.176363170698401 3.491908142931933
222 1.2510854625375687 -1.5616725606693436 0.8848644646717507
223 -0.9016746405598628 -0.5554353738617316 4.430211037812419
224 -4.419374886684865 -3.2766630226064444 1.9231873308470069
621 0.28745263128401577 -1.1795604936673931 0.2737098426472554
622 -0.20814530232778858 1.859735155816292 -4.671293255224161
186 -0.5516373144323571 4.272361369108082 -4.7131804141940306
188 -0.6200932112068381 -0.967494171451881 -6.100276366644699
586 -5.065882515582697 -0.7119708067481093 -0.1130208326704683
225 -3.67529027999282 5.820354695903113 1.700515073046659
226 4.694110424546349 -2.813687194948116 3.0191317703935
227 4.107691654509808 0.3655805991269769 1.9556804480479102
228 -2.3823968431011266 4.6973930729501125 2.7750325441455534
625 -0.30199906469410365 -1.1274195464368069 -1.9001841435545257
626 3.4952441459023644 2.0304135407179547 2.115165155065371
190 5.781636945714124 -2.920515062980587 -3.052985902477858
192 0.44746095867941194 0.6769342669632381 1.862786603253452
590 2.2682989244114737 -2.466705967514189 -3.023531759499247
229 0.7080554444274275 -0.38230103225312684 0.01154480061183835
230 -0.066529025255038 2.5016886736152273 -0.4925768946904066
231 0.7230744826959696 4.17581378203976 0.16128429814337367
232 2.082880947268305 -0.305078524227503 5.330325856891259
629 1.2416223183913242 -1.2301448286374346 0.8516822750716447
630 -2.1977975581517555 -0.32156817710172747 -0.5677248972282652
194 -2.60533287504487 -4.63670758284902 0.9059567517348949
196 0.3343707732423389 -1.4952463801020326 -3.925650375784569
594 -0.039212656059842796 3.0072718693315292 3.172736019181856
233 -1.7890692879728955 -2.1254545469297126 -2.9224035037003326
234 -0.4504936873389313 4.453401749872822 -0.7206173052319411
235 -1.6081527509451992 -4.704989908489872 0.329119069463793
236 1.3157856210935182 2.4330186905129874 -2.064324714392957
633 -0.5035457970395336 -1.0368020789185437 1.1262195277560851
634 -1.079252010361445 -5.215436601738169 1.052080112601767
198 -2.8472349137961084 4.019937155236663 2.5131356530711306
200 3.545202786612786 -1.5405352714175415 -0.6612262178965418
598 4.33287346396774 1.3922645733006789 3.973263650677964
237 -2.4053893415181524 1.547294538083795 2.9641360052954067
238 -0.08574852032545097 2.181983698905016 -1.6072876178305042
239 1.0442847194877054 4.271179138840093 3.15697960143549
240 0.8932731969100673 -3.3018559904773683 -0.13918015604408668
637 -0.44467846631071734 2.4336002692321013 1.4722129477692463
638 6.26303638008927 0.8568900483469414 5.436089458929153
241 -1.1012194897939434 2.2212780097852733 -1.522317540678466
242 -1.796521220643087 1.0766760392080788 1.3984473496248517
243 -0.9699275635632862 -1.063194278520644 0.5835155224241172
244 1.3153588913753134 3.800633347841044 0.3178980968008876
641 -0.8188064929853806 3.2898488813061535 -2.6805238122525865
642 2.388058999813219 -2.5185629478166573 0.6452373125827201
245 -1.0729573074961378 0.5617870187511163 2.5472237553586434
248 -3.5558052801975584 0.9430408903296666 -3.3760481797481066
645 5.1891947700649235 -1.4959410806695914 -2.1914592060979956
246 -3.0273848143446584 -2.8052781466287127 -0.9941224320782895
247 8.178973676353298 0.4221481776377898 -0.3741492022286216
646 -1.8843804227057783 2.2411328447863474 3.0712540370728383
249 -1.3030213633895593 -1.381203853413485 4.047370936239199
252 4.339303513075328 -0.5399977726482241 -1.016829559939391
649 0.1915798048223234 -2.168541848439357 1.054129302157232
250 1.8630366430843772 3.3763320426597514 -0.08843808513272806
251 -3.7000610814002006 -1.861802736718844 4.344318066614615
650 1.4357003164436941 2.3528092204256184 3.4978874331485295
253 2.4428863146782924 3.2484093210626757 4.106595866141985
256 -0.8962348417760475 5.555819360215764 4.004669617097625
653 -2.2105612747374987 0.07223455701473154 0.5429593323493821
254 -0.10027446255877259 1.079951490195553 2.3490873891502027
255 -1.6295075987800431 -2.5417117430223453 1.8605986797307117
654 -3.0639732506462702 4.986636072643573 0.26401984573471976
257 1.5298211781210953 3.5856635729507462 1.2567544627281617
260 -2.5609479265384962 4.324332781709159 1.4958938004269042
657 -5.935249356290506 -0.5760996009702319 5.452751889638255
258 6.345439897402106 0.5047800499762641 0.5644380738475029
259 -0.4414417820015787 -0.49793813855522906 1.4557553362525844
658 1.1307584205367556 -4.266566267225944 3.261185360072775
261 0.627606903718468 -0.47992617872489957 -0.06176706892958701
262 0.17563237372490823 -0.13650378906903957 4.669591209496406
263 -1.8770195816097708 3.6302383345513927 3.541241124376884
264 0.4350778297531233 2.292240282347411 -1.604592951480278
661 0.008504943363939498 1.3160409751067343 0.31286593737227264
662 -2.3716162804308047 -1.7276696720212374 0.7217944527208546
265 1.0657974717252927 -0.5552024755393425 0.6842794111324209
266 3.2584863195893345 1.2289692403387782 0.8169898434442108
267 0.4153926582878481 -0.9993719713035503 -3.58386557163028
268 3.928697208380749 2.3133092406098097 -2.404532194440032
665 -2.925094098513264 -2.630081518528562 -3.3289031568368177
666 -4.365381496251461 -4.65644827200499 -2.4317814023959445
269 -3.661085958759294 -1.2606102171321938 2.5174160112155044
270 -5.867766750955245 -4.0980087390521795 -0.9247118034419539
271 1.0915903232828015 -2.0006493065850988 0.5269998650383833
272 -2.110081330321728 5.408635687920012 0.3230981411910364
669 2.9791989092231477 -2.471134658555751 4.442498175355803
670 0.7924870073333877 1.9144938512116763 -0.2393894262439028
273 -1.273135554100822 0.06611430972219097 0.22609792988684585
274 -0.7481072431025427 1.917127742334774 -2.814922638132966
275 3.6253422446170176 3.589207695534689 -4.505536131437073
276 3.3616377109207827 1.0672948267078037 -0.8248591591635599
673 0.09779713030965871 -0.5072288842590718 -1.638050148413204
674 -0.9606882561480296 0.1373591063331728 4.675768060786636
277 -0.765476816692729 -0.7460830454779243 -4.716804598282303
278 -1.5834630166822363 -0.46929834266596326 2.3629127590815093
279 1.4053753912672624 0.5620995414926946 -0.9197560096790774
280 0.26845488780578974 -5.4276208558538 2.2367938229556814
677 -4.11698897481143 -3.270844232896263 -0.8837902999641175
678 0.6786992198619981 -3.2749901312158447 -4.2929313515354846
281 -3.6671077447099036 -2.0197030104875258 -4.740439294344515
282 -4.188013427789408 -4.414820120930899 5.808567002386187
283 -1.7558598504933518 5.628925556759385 3.166521520666527
284 -0.8661652532654137 0.08356476156896812 -1.7755598346820083
681 -1.284353499270832 -0.9583300149252185 2.351669529498168
682 -0.410962253430027 0.07801785154299097 3.4732373982288176
285 -0.836109910639566 -3.352561161419106 1.6929142193148286
288 -1.4312697603580864 0.7641086614329831 -2.821775683014398
685 1.4504773455314655 -2.602855608412419 -0.5799600484043729
286 -0.5516192995628559 2.0938005106072723 -1.5916993372499408
287 -3.7164130663702597 3.440188091994486 2.1392296251722422
686 -4.668914902277105 0.2506797979302445 4.824154914619461
289 0.1732016587559797 3.8673369307091066 -1.7127440181626796
292 1.5143813761058493 -0.3624572673399479 1.7972321535872986
689 -1.360563702701329 2.1716827646033328 0.9816329587299502
290 1.357027162692993 -4.6874088884664475 -1.4890967260567818
291 0.7742892561764565 2.3425163014891757 -3.5690350006477622
690 1.3290789451176896 -1.9999502392773196 -0.8027349920416734
293 -0.5603739440689024 -0.9584680075190236 -2.7791905071024448
296 -0.32739994483637136 -5.435277711181657 5.629187265747352
693 -2.3758787743640117 -5.4661857542295005 4.020902638546034
294 -1.333124251751314 -1.4791913537476564 -1.2600667040141602
295 3.2753245869417844 1.1701258763776903 -0.1381708203434946
694 -0.6356915931966752 -0.3008531108861494 -1.255512810766163
297 -2.043443440375722 -3.2082323192761186 -2.140140726557881
300 3.1204989857344025 2.7893732612338002 6.819001737356852
697 -3.5547805888344333 5.074736020914018 2.7113199635725556
298 -4.0254482578401305 -2.3238939647887267 -1.9981488257629372
299 5.764182681234988 -2.9197926276260184 2.080836285035926
698 2.6360833912586488 -2.381294331680749 -0.2869218327631152
301 0.0819450957201404 4.7163606113221235 -0.7471671658177543
302 -1.0517696273436485 2.902144607510541 -5.098647618008472
303 0.9023108792116215 1.1622844973722353 -0.0024728045477047274
304 -1.5320593489486365 1.5478740590862323 -0.7566831545648579
701 -2.513024281890302 -5.695541393068185 -2.1354888582215747
702 0.9817242116881356 -3.593174992025425 0.182369987452705
305 -0.3316686568271715 0.40554804372127157 1.3233302695403888
306 5.665462344244851 -1.0873785022429934 -3.7326470220243224
307 -3.2579476884742906 -0.8262953472540133 3.427101981644778
308 3.9463101447508793 -0.5237860591128474 -3.325374142061512
705 0.6557779642967624 -3.7113432537598494 -0.970524130304945
706 1.1628492837225923 -3.1076158310526227 -2.747095024348396
309 -4.501198838167825 2.0002219559595247 -4.083241319827144
310 -1.6091037796179364 3.8855183273029366 -2.201358381444725
311 3.2055736759586613 -0.5993722081925421 -1.8631898940687364
312 -0.2560841936414716 1.8202604387421117 -0.2708719475321319
709 2.4173455010808387 -0.9302553326121319 3.01859058949618
710 0.037540887740725414 2.016773474829223 -2.979095722709091
313 1.4506949949608114 2.4390767225061656 0.9246719815590536
314 2.7799875731711223 -2.5069363913489213 0.6847163859957253
315 -3.0522164336477386 1.4222845735468592 1.9809937690960273
316 -0.553987649698756 -2.4060598335396364 2.5748411706520593
713 -1.9304155472206457 0.44343785278078 0.720599165020748
714 0.6560455731035959 2.365407267650432 -5.7493544387682025
317 -0.8648423726881683 3.698742211198769 0.8039724942325228
318 1.4095903632492528 0.3044715334786551 -3.7461818112527063
319 -3.9705095934019172 -0.9505331991841054 -3.582349490157448
320 0.5689082226916099 7.027878460532523 -3.3702941820502015
717 -2.166072896920894 -3.7598735061611794 -3.3080411136262136
718 0.045115743066192524 -0.2872709490652653 -2.831691022787831
321 0.7461197960485211 0.29444775416462515 0.564721331020422
322 3.4280053421676677 -4.533997527479511 -5.728453343551244
323 -0.31355247881494475 -4.399177383385252 3.1439967672386127
324 2.565018785490673 4.192488881595299 2.965241921268514
721 -1.038136558177624 3.926047902990565 -1.1194339829357893
722 0.5707645843329331 4.205221181001787 2.629494253576884
325 0.7330718206723059 -2.2375323036851857 0.4825657900331855
328 2.755015498986749 1.9051515511641166 -0.7007691226825656
725 3.047894022689086 -3.487504814122165 -0.59609178565001
326 2.5412770308035837 2.29310119524219 2.168817403290986
327 2.2135742584304117 5.499925500007378 -1.577134342914939
726 0.29002856279326883 -3.1101578947132804 -0.35083237401460676
329 4.344048581636157 0.9784293787155547 2.3823752653546535
332 0.7002635436322389 -6.896878597185588 -1.4080431650235965
729 1.8432823411124504 -3.300329628035823 -4.354412091924894
330 -2.073702547765569 -3.1972260556730876 3.1254902511304685
331 2.7043950992631123 -0.34119144222614817 -0.8333611072463506
730 -1.8645163360651729 0.6061714461736702 3.5866071992111292
333 0.2623305436806357 2.9178315555217593 1.1479351542775635
336 -3.2404840586969565 -3.6819631490027516 1.469618266552541
733 -0.34257037843723587 0.9554550126990089 1.2766687384300721
334 -0.19724426080421034 1.9328888821080672 4.31279125395372
335 5.856055471519302 1.0542253710301015 -0.7406774629563098
734 -3.89395834358272 -2.4569337577482253 -0.9099375804846989
337 -0.861702343908266 -2.0906245925546227 3.499472351912508
340 -1.5969587472389817 2.051380746208944 1.486494693383
737 2.3678864763659804 -3.02482685790771 3.575001434730696
338 -4.485580846120085 -0.6316047925165396 3.0492128239652256
339 -0.36937735665539023 -1.437039497755287 2.2734051629448637
738 1.8007793835533867 2.931173649357349 -2.473135463825088
341 -3.7955875007334994 1.775231668089176 1.8910963976737731
342 -0.6279410720823346 3.7468705354167384 -4.439312362699273
343 -1.1592945536844703 1.8701768602103783 -2.432445871720946
344 3.0129184939769216 -1.2985271826722384 0.7419647412264404
741 2.7100753783574714 0.08757869296756972 -4.245760667006822
742 -1.9117914062703882 1.6509030009682504 1.50307442737818
345 -0.0816544137530144 1.6864931977854163 -4.645469444254522
346 -0.7781055020000245 -2.2289178293654803 -0.8974221949452762
347 -4.4261255622000695 -4.21955587402356 3.5080507059521997
348 -0.0379086626324405 -1.7887925049575448 -1.651823620762682
745 2.649326952758939 -0.5204378435022514 -3.882023864995117
746 2.0823115970976356 0.36014504014239895 -0.8182993481073692
349 -1.5763161159929269 2.9173327000411216 -4.1884421416941935
350 4.093549070455287 3.692397891568983 0.07628417048903492
351 2.6686325157175066 -1.5717148773801868 2.471688500254836
352 2.2692321540068154 1.4772543269933112 -0.41259114658964774
749 3.09970982848107 2.0766437284867916 -2.9907186932647
750 4.530112816740787 -0.3160533125454886 -1.1512537172946107
353 1.1412518488104997 -1.5889243837892406 1.5761027733343642
354 -0.319981728786108 -1.0690834691103999 -3.0967614393184735
355 2.140883885221625 3.5198147486457856 -0.8883542842289883
356 2.2357160804580705 0.1205733471966705 -0.443379840518087
753 -0.11422030848165655 -2.1099759214646827 2.1846454571034135
754 1.4298055384070834 1.9095645105274277 5.621570916241949
357 -1.2817512935109456 3.296571587017 0.871739775607979
358 1.7536306038347098 -3.35459570598585 1.5654009111434153
359 4.167670190211882 -1.6491304665936473 -4.075197073751219
360 0.39565322412218956 -0.16759997606565316 -6.263717121562174
757 1.4891136506254603 1.9502901929702567 -0.5980182318086763
758 -0.8317615361480649 0.37583571748678285 -4.25649444047411
361 -0.9333414755873248 0.0802028456600172 -2.040139276761514
362 0.11512624868529858 1.6913662746729508 -5.523313237375634
363 -1.6415993315653707 1.4963676311076393 0.8972404858417564
364 1.2780794165248839 -1.4276247782690028 -0.03139372763403041
761 -2.996542370773342 1.2237498965712552 8.507199595157646
762 1.0517682361180787 6.46873164137524 1.7335617938715
365 2.549061440095049 -0.21274683094090327 3.9769592725666363
368 0.3103248920847545 1.1840939141669249 -0.6919343657140785
765 1.56705564681858 -1.9983740127805625 3.8703943088526493
366 1.7001588260725629 1.145070693479813 -1.2626023319893402
367 4.205518402571709 -0.5618427614041088 -0.04234902867180198
766 -0.673458102786607 1.3131466851674494 -3.199836101807897
369 1.4464895006396865 -0.07683467495485376 -0.9177417608087673
372 -1.8517900566205663 4.002650735025179 1.7832071636084617
769 0.9880325474611761 -2.603971285999543 2.83050690658232
370 5.737354371963623 -4.614287738847032 -4.161865197663773
371 2.0893480757717375 -0.638487838143048 -2.606976065773525
770 1.9802513716849863 0.9136231954956793 3.2140464534041677
373 -2.7986106133165825 -0.6917394418938094 -2.607242735902487
376 0.007785027247885297 5.968926916781656 -0.7671919023234542
773 1.5206264831658538 -3.801243372302258 -1.8707624325153098
374 1.3462627232983475 -2.0938552111199162 1.1884197826794174
375 -1.1806916351168675 -1.7267005258840846 -0.3139382500370996
774 -6.168951487482394 1.1755334983564067 -3.011575845977444
377 -0.6233622877443169 3.517197911557906 1.0577592584591469
380 2.3452684425635058 2.3708922690110956 1.334108864024822
777 -0.721177632478546 3.9710482039898127 -0.024555591582049348
378 1.9282212510366754 -1.264209584714488 2.285138878903778
379 -0.44614488335784785 -0.7263756879233342 0.21385927000082602
778 4.419425795687025 -1.7572879053829549 2.3134034416531715
381 -4.15686409036398 4.7512059718123085 4.32357198562376
382 0.22211896298943382 1.4674669803549147 -0.6566683761225327
383 0.19656757020116167 0.3325257346802393 5.408431820416903
384 0.22782147177198925 1.4211175159030514 0.20292020296892224
781 -2.0171425582359848 2.718381958458199 2.606519053605424
782 -0.032127179315368584 4.58481118187628 2.577802714557051
385 -1.6251682452498097 0.17683217630483739 1.0690257118570006
386 1.2078994133020586 0.11036832072856155 -0.880466430753086
387 -2.541750387386907 -3.853157164652144 -1.042795524665025
388 -2.391347981131436 -2.7077761794748536 -4.529806025893273
785 -2.1209276904000216 -3.0867578167022383 -3.6760534786065278
786 -3.5917189931356446 -0.6507307662049634 -1.5770753515052789
389 -2.1058716353338114 1.6882298553759434 2.6023913237944476
390 -0.42323274551640916 -0.390640437266019 -2.2129230284842145
391 -1.7002902632570691 -0.3872915496714112 -2.238001843050653
392 -0.006779888717291815 3.196987974532512 5.997157233209881
789 6.622598490997522 1.3617970837054743 1.442702415185411
790 2.5343337790948723 -4.543959609112415 -0.2550261511255935
393 4.268446552500582 -2.2277038768595485 3.4801889407049003
394 1.5801455360181513 -2.093075430343089 2.214626265189729
395 4.64274519866477 0.16612033751607955 1.662950142250593
396 -7.4903422953936865 -4.963862158087413 -3.9435241670173626
793 -0.3770861314887041 4.523347548120732 1.5909641228055567
794 3.404134198229787 0.24760270134320544 0.73920894809549
397 -3.739660390278551 2.1379851455179013 -3.368885505912307
398 -0.3741969727359898 -0.47745552636806693 -4.182616882192609
399 3.00655720573557 0.03857206870992665 -0.15050247365577493
400 3.83790488749313 -0.2574252226796602 1.266321724158921
797 1.8931775089928047 0.5041359089682352 -1.5480661292516855
798 -0.8821001603245027 1.5455361693031862 -1.7875952101862833
403 -0.3267274524752036 -1.3418314183146076 -0.8814931060233046
404 4.288058470841467 2.1076041453108574 -3.3334191516279534
801 -0.36534128109591546 0.7266697576864076 -2.4903513692004777
802 4.310157438678869 1.859380162566849 -2.717474503070983
443 -4.943424028901015 -1.9075416116726516 0.39389474445175027
841 -2.458114194748122 -0.9279525517891487 -0.8781346790131501
408 1.1002984909525892 -0.9157853176130182 -2.9115037968097734
805 -4.640419704348227 0.9541804977718158 -0.04325108754889057
845 -0.6042115982736008 2.0569131806887255 -2.115587555216734
407 0.09944729945839703 2.5280679239334547 1.3917902427964657
806 4.4283468975697735 -3.554818971193372 1.531380805926795
447 1.0923383509514932 0.418764001735977 1.5045340755804755
412 0.9155238945390489 4.5828282931941695 -2.4991440194541554
809 2.5091864238553723 -4.751895391790374 -3.7272351942965556
849 -2.752939978844277 0.7212399903084206 3.186085212271905
411 1.0207362310430976 3.1002336809566016 -1.3365829201544777
810 -1.464117776541352 -2.549297003517701 -0.290402323897712
451 1.820749744361753 3.316442231777986 -0.7560158774232183
416 1.8538604481835868 3.4821509430358293 0.5169846825677247
813 -2.2599604128629354 -0.09677794792733174 -5.251848756793838
853 0.8426537238076357 -0.29156500048649836 2.951189043930844
415 -0.2919728592093885 -4.461409585437652 2.0951630673433836
814 -3.688289395501151 -1.6742381820149599 -3.5447611109601103
455 0.20433843317160705 1.69282244728 0.4467969633344874
420 -2.5193005401276674 1.073401079203553 2.5380924606098163
817 0.3905576012037556 2.9469746599982427 0.9617440447158766
857 -3.9063114194403563 2.045769511571605 -0.7882934535420688
419 -0.3173074400219188 1.560660204747138 1.4936570583357252
818 -2.164508915690815 -1.2098700377038378 -3.9749808601726726
459 -1.9636645504778891 1.0049637056097767 0.2247692655479985
423 3.3744226913279274 -1.3272230432254863 -0.1788393928666256
424 1.6930130526116391 1.9027850322067092 -1.9805596623294466
821 -2.145046148780679 0.09463733843839787 -1.2684567857356817
822 2.1581920365359726 5.2509372942452615 -0.3022153181872481
463 -1.7828601021128787 1.0435232088526105 4.245248442347622
861 4.380543572595204 -6.18714694778777 -2.0664055042100777
427 -1.9424265607638482 -0.11363546009743138 -0.31652925475914534
428 -2.2907840172628906 -0.2298249063360928 -0.6904805442173526
825 0.9938540097259388 -1.1174066450385238 -2.33229840827044
826 0.6585999736004514 1.892154470990387 0.20908910463629732
467 -3.11278304557364 2.6192503730291783 2.4917370112480812
865 -0.6942884237956723 -2.474441242679849 1.2349488005675016
431 0.07675084951139849 -4.334145471718772 -3.5437251864780497
432 0.6339678628462232 2.5629731342491753 2.2553902143183886
829 -0.006758242271793628 3.9073994654674653 -1.1441499119843237
830 6.373934489003885 -3.093740719262367 -4.565559063502596
471 0.6249553314474616 0.7421147959781454 1.7289445039262703
869 -7.78430896806894 3.7775935469006807 1.281036680223504
435 -1.8003428477694519 0.4334223845024595 -3.7055591505721317
436 -2.3423421930193746 -0.9446284101106024 -0.8817329233696903
833 1.1474442631589123 0.9426300938502326 -2.625189006409803
834 -3.0268646502328886 1.7068100502987307 -1.1534205533688033
475 2.645537789329772 -4.481308525461621 2.1694823605830726
873 -1.829987326296287 3.4079313446388775 -1.9765749229008536
439 0.1750585817904515 -0.5697094041214043 0.5489235466155681
440 -3.8497922290468343 1.3239106180615103 2.7563612732263953
837 -3.4313263467376176 1.857765286248842 -0.6405018050952356
838 -0.9424474157700454 1.3863201776546954 -0.3304853465162253
479 0.2669073292957421 -0.7709445293039282 1.757730266632457
877 0.36162827760594524 -4.420651690009086 -5.2241286327980445
444 0.007004945000740402 2.2201876186067118 1.6390904564198507
842 1.623276170372791 -2.4471787856394807 -3.6727974780052777
483 -0.6878103055789784 -3.642432173360745 -0.395619457747442
881 0.9422043674637057 0.4838373657762847 1.4987445839511748
448 1.2528200510527352 -4.758845091021923 -0.9713016275420535
885 3.027432716615152 2.6958874742899472 1.8461937268870376
846 -3.1451622798100107 -2.757203820293242 -0.412400668183681
487 -1.9545584219853345 1.9673250346164846 0.233665485468957
452 5.639080239665223 3.3692026018869248 8.281569840692887
889 2.182716111912647 -2.5617727734985087 -1.5799309569798374
850 1.8242407170229307 2.1747196750438156 0.7904592767327161
491 0.08975744383810369 1.1377919640959178 1.15696922839613
456 2.6682754017939763 1.737787608693019 -3.1248952905989755
893 -0.4856692675694427 2.1830841556403398 0.6338006144659489
854 -0.2204469756345088 5.118738382027089 0.6744978689657035
495 2.5074561411906577 -1.6290861125227851 -4.124525695238126
460 -2.952508195640714 -4.287387711640046 1.3277952196160743
897 -5.427078260945565 2.4293812383178257 -0.7523655171677442
858 -0.5621288796873606 0.5992171687596763 -1.8083033294902942
499 0.39411852608077724 -1.253697682403294 -3.9443665900135167
464 3.170197755973819 0.802383560676763 0.392744082302362
862 2.3040036749889303 0.580587668372112 0.0811158779613871
503 1.3570164129539244 -0.011501184441167227 -3.3443711940191156
901 0.8862247286047684 -0.333408424407439 -0.2413005522010328
468 -1.2620351229029985 -2.6374218487507344 0.395575847980762
866 3.440153269935859 -2.157465949011585 3.4892885249748
507 2.2299367025664285 1.7397586247287085 -0.9746997262387624
905 1.2341358267458984 4.748912012958884 3.9466315956651594
472 -1.3249556073262094 -3.834889643367083 -1.9626279307890309
870 4.1160159557496865 0.6732714082089049 3.5483498239260407
511 -1.5907654980469652 3.2673284132650484 0.16602739254817309
909 -3.9117640739006765 3.2028055299876677 -0.08659064327023723
476 0.7313235276098852 -1.12798783832896 -2.332987477185404
874 1.2010197053985288 1.8448250159827684 0.8886514137603376
515 0.2241813678519575 -5.795646535361647 -0.5434725933584549
913 0.2612630738762919 1.8351626384378388 4.705012959458674
480 4.3861249713693296 -2.651841843439603 1.4117528098610763
878 -4.757692117416814 2.587172217458036 0.1673580149169402
519 -1.3082011175096278 -0.0015674605822106464 0.451380074182346
917 -2.5221734149087323 0.531894428613194 -0.5831348710413785
484 -2.799189306464555 2.341642770521187 -0.09260295721542902
882 3.371553318200322 -3.121126798746792 -0.22618672400194484
523 0.17819969936356522 0.6716496186232668 2.831119785972047
921 -3.8283087323442473 1.4327740655887882 3.845731334260611
488 -0.3166257704420433 3.0360032628536513 -7.45978241507521
925 -3.7220778972860824 3.309376312093158 2.9093634242175024
886 0.3325984845175596 4.968174417279818 -1.0405439909261502
527 1.1888643517205266 -5.873620459409667 -2.8365506758820476
492 2.6401025411497394 -1.5688351019266973 -1.132944728432
929 -2.301387607758544 3.151257655952249 1.938690422580872
890 4.0646129683354175 -0.6397246473484147 3.933235295079084
531 8.746626725008491 2.1602218895972856 -1.5323537837991754
496 -2.005102548230149 -3.494760694958155 -0.56933306520052
933 5.7460946537639925 2.8054115571893288 1.4261682643203701
894 1.0743369804349658 4.238673601720172 -0.6493208939401792
535 1.6060357414891366 -2.2890307528287575 -4.163460344575921
500 2.3314575710313905 -0.5968430172878089 0.1255648995394695
937 2.244950484760411 -1.6689544135856504 3.6796349828757933
898 -0.5298607345094647 4.579622262534878 0.5958637656638828
539 -5.570550663422317 -0.6392318457278047 2.763968543227825
504 -3.0595848745526184 2.231318468341344 2.23374277366039
902 -2.492541613493865 5.175444819050197 4.049682763645452
543 2.161982284778701 1.43114141306738 -3.2598976152837524
941 -2.6911465396026717 1.4226704127111804 -6.389739904057574
508 -2.5863648987334527 0.21367434448379896 0.1267215459212025
906 -2.3245059263366468 4.41716883961605 2.51912803328114
547 4.43179458375181 1.2743317668912273 0.4863914417564081
945 -3.900634924972057 6.845879433311117 -1.0060881655237186
512 -0.7862135607351257 -4.065557227489716 -3.7268198441747433
910 6.1925604504057965 -1.6727176445771168 1.5397363548064495
551 1.8536546222436123 -3.9086818995728296 3.765819507900326
949 -0.1018762373768148 2.0366764486516256 -2.471669432511562
516 1.449767735886264 -1.3555447074117353 -2.8422624452532026
914 -2.8146381377228966 0.802224259472902 5.509135242143177
555 0.788813486277619 3.207656127750013 0.7835501819418828
953 -2.9701967037001173 -1.9673082679089406 -3.506695111035448
520 6.60723845949249 -1.1397809321401668 2.102685430426795
918 4.6394727901132375 1.8282926404510218 4.885497656482948
559 0.03520390276557022 0.9642270197669536 2.2298519699153703
957 0.9603495311507697 1.2902918055136605 1.3703654206786737
524 -0.30499629415207197 -1.6637258942026054 -2.665970854905909
922 -3.863827184357506 -0.4968548529646751 -0.8765112816467736
563 0.09515991688166021 -2.8677229971187295 6.009449702387802
961 -4.8588784776426115 -2.279431569950382 -3.0855552502363133
528 1.6372299601198632 1.9737945085464452 1.0091197006271184
965 2.319678831376633 1.922494856569755 2.964609415850959
926 0.9012220397617212 1.1132382994974221 -1.495226384609779
567 -0.08766515290349589 -0.8283385455923943 0.21236868705261747
532 3.3239632807841093 -1.2595931446293245 3.686965527837727
969 3.524655946334922 0.9690228099411 -0.06358652136976038
930 -4.511297735083207 -4.700983579663331 -1.3035424618375193
571 -0.8180372111998744 2.2080188892845256 0.0104789581827038
536 1.7744685622521619 0.5407336406762778 0.3349630882883375
973 0.030380442580566904 0.7743993502226655 -0.72010064085649
934 -2.228793556416609 1.4552553987532544 -1.2110769059949438
575 -1.5660959617643857 4.006861445254832 -1.636134481468933
540 -5.109040183897364 -1.8129923457967554 -3.1207237178982568
977 -0.09414218677438348 -0.6698810522794284 -1.8001764719214886
938 2.16634297586958 3.168129093972905 3.917968076766144
579 -3.7679681601705317 -2.508411001719938 -3.3258785945135654
544 -1.4185896519194146 4.154878775954803 0.8313632939968805
942 -5.695574606589327 3.1767259711381604 -2.615031047137163
583 -0.06145597096917767 0.7164284329337677 -1.47365795293499
981 1.5061538384903612 5.89848302676331 -2.249227219586439
548 3.3395812950661052 -1.2407860917789784 0.2871209181008011
946 -2.173802280124042 1.9294114198736567 -3.522422224061512
587 -2.152897905950674 -0.5147109818818644 -2.064095073232751
985 1.8550274273955396 1.2229224578158266 1.739350428839426
552 5.11522352221641 0.683881980029509 0.37774705515566764
950 5.47719587112731 2.4327795852900618 -2.1816007783648406
591 1.3056279704556273 -1.340009884160605 -1.3327784862460157
989 4.662748955913069 0.6251187333615073 -0.9215853184311287
556 -3.2800061466154347 0.7485378701529259 1.1508683316357602
954 -1.1230802159459552 -1.536768486106913 0.40210288240620845
595 -3.6303586715775324 -5.14139658885331 -4.742556183376376
993 1.324541907697764 4.827522920435599 -0.4404577003014962
560 -0.06313007507268568 -2.1412372934818946 -0.39745786651008685
958 -1.2217586604653357 -2.4970929071310306 -3.6324073586103576
599 3.025848574614362 2.0243542872101314 2.462298610603825
997 -4.172366741183043 0.7522918725907063 -2.9992308848372207
564 -2.5305260438062276 1.996962154342136 -1.7735531301536085
962 -1.3184786172013399 -5.238842501621319 2.720165462525153
603 0.5552268361385134 0.7626444398692436 -2.570814666374018
604 0.6057716418928788 4.754619595344101 -3.156370744851822
1001 -0.6899748053114316 -0.16384668763793123 3.167968515492337
1002 2.7499457825513236 -1.4774248331300734 -0.03446015815645428
568 -3.919193918775419 3.5107013221305454 0.047973398317299666
608 -3.6656024042756323 -0.811768041476029 4.950673312386926
1005 -1.9628327199666522 1.5346335732861442 3.543295330763481
966 3.082736560260816 2.0134174270877474 1.8226135690036163
607 -1.3213655765873016 -6.570732639517842 0.777594338292249
1006 -4.062648569245478 -1.407255712612189 0.1719031888684913
572 0.7154564495086718 5.6716774186131165 -3.13035500998232
612 1.1337657288425624 -5.288647668289477 1.553924716786739
1009 -0.4814650693235909 1.4416203454515246 4.739481056269445
970 -2.5718564375845014 -1.2635472837898791 -0.4200606566789774
611 -4.139708757687413 -4.905666537929302 1.5637326685073325
1010 4.9522936220206955 -3.5292473836941727 1.599471015223191
576 -2.2712250277616235 -2.0736748267404095 -3.847218356002018
616 1.5514174640650622 0.5382441085319719 -1.4621014966905808
1013 -2.222918146618275 -1.365259114388339 -2.0462327679252397
974 -0.08282289011341594 -4.221778725844747 1.1315552431549716
615 -2.1521748766583353 -2.6352771768374628 3.147117848811795
1014 -3.9077363653893293 -0.6152228801821109 -1.0258896496378154
580 1.0073709805380666 -1.5653177834130412 -0.44580533444029496
620 2.701989648290898 0.10527105921141498 -0.7048969064222396
1017 -2.5998960704851783 3.6125933214824983 -1.7394403950522017
978 -5.441732474756628 -0.829345554921259 0.6535653902588394
619 0.8837072751491615 4.129415759330682 -2.7027996811034667
1018 -4.074613805176529 -1.274410890522233 -0.25620842030881497
584 -1.3691639916229286 -4.475423416472691 -2.122083967118514
982 1.0350064725445 -2.8524104120556726 -8.362278704355523
623 3.760322445397004 1.3347815332260071 -4.998336759218472
624 -1.3847708275353514 3.108312709635883 4.116537452189817
1021 6.515429794705738 3.0222533542619234 1.272690849531416
1022 -1.3754622980256315 -1.2006275212007271 3.202083589044981
588 -3.113233919143793 -7.415108563373494 1.3395864656268182
986 2.5443459133218806 -2.4938851720075212 2.2172752261483835
627 -0.5472079769230653 0.06676923306768269 1.3924698871202703
628 -0.907074177883026 4.367759272025481 -1.558178422650464
1025 -1.5712862484046861 -0.2485519075246437 4.74614445431051
1026 -1.365693389005781 -2.6626177678983045 -0.8881344770564044
592 0.9035569836651255 1.105947816458959 1.4340060158177514
990 3.881101450761455 -3.0659104980462875 -4.550410264435768
631 1.0689487936919844 1.9243134169729785 2.025053016657589
632 -3.3071759028677254 -2.876382916778084 -0.18414740056397688
1029 0.8147554472974714 0.5639249897182461 0.22154689393279461
1030 4.942816753328163 1.0147462525379207 1.1754508906871417
596 -1.7093586342098166 -5.396537941215293 -0.5516243713745128
994 1.3844283110714386 2.073894137050593 4.680022422274542
635 -2.570212222932049 0.17959211739347647 -2.0398220873567743
636 -0.7692317112887236 1.6965867684132532 -0.3182485193647005
1033 2.8873725585181655 -3.523797974196423 -2.240190903493803
1034 3.315773656948457 5.429559120919796 -0.20715400827190436
600 0.4294362875614011 4.38306626195577 -0.89236103451755
998 2.061196115278077 1.5606456774200368 -2.7421628089982137
639 0.05624657380200768 3.534538989506036 0.6134988852577089
640 3.805424205181678 -0.9654732943898718 0.5927788236040537
1037 1.07092898921791 -6.449618806678141 -1.3750901356655434
1038 0.9138558722562518 0.8987617122963542 2.555400005177416
643 -2.749328112238047 2.4310893829587727 0.6209336258685221
644 -1.9280149781738443 4.41893548967191 -2.0533961223304624
1041 0.4259250983468637 0.044883387525513796 0.7205331013955313
1042 -1.4601238618042278 -5.568382090567855 -1.7886387777705244
648 -2.640387975850428 4.458508997858168 2.955661068603613
1045 -0.1174429229373054 2.151197207816224 3.282228461056437
647 0.36701868256445075 -3.393456882505523 -4.864417972025843
1046 -1.0857807793455698 2.8868267461094765 1.1162599973990917
652 0.1916730136706052 3.3851392453626956 -2.7952483417061567
1049 6.78541849539399 -0.4279377568875492 3.9718693487338403
651 4.604250829209185 -0.08162119579317234 -4.367039004362439
1050 3.102936080785004 -1.4255276511474864 -1.3206302388029816
656 -0.5586810874021738 -2.3203312762829333 -2.7813868466295326
1053 -0.9574690018325399 -0.5028191893438323 2.534978777699433
655 2.8063310344280215 -0.23662701176751344 2.1997451691767185
1054 -0.4045111069451966 -1.8211617449259094 1.259318899616753
660 3.155513568831602 -0.5884761599004329 -2.135382767257406
1057 3.2295232032895287 -5.056763620102062 -1.367124191758227
659 4.455636368240513 -2.4095124018232834 1.7362448092051581
1058 -2.1948375005926253 -4.7233849244760915 6.434027559536009
663 -3.055862267311403 -1.827421001145796 0.7560982814646502
664 1.3349985216276459 -3.091642630330923 2.3404600142319736
1061 -2.215915497796513 0.3760621581805075 2.087583068782215
1062 3.2122219104407503 -2.43368671318546 0.720007680645286
667 -1.947104749663229 -2.8497898170883302 -3.4212990945232273
668 -2.679597533687472 1.7202761390835986 -1.6711803244390102
1065 -0.2990345447439699 3.2111382076769504 2.941005371284528
1066 1.705302325446791 0.7765737414076985 2.025388942854015
671 -3.073826442074555 -5.057699180571445 -1.6091107323335818
672 -1.9620320703918652 1.8689618592451083 -1.6484497204135222
1069 -2.2905571338227664 -2.2324134004898935 2.4310343199110216
1070 0.7372261370525292 0.9788717889308893 2.3023048925665197
675 2.9242984349573073 1.6828059493826342 1.1813870222459355
676 4.2962470507966595 -1.77381581966583 1.0401702398555426
1073 -1.8060591686139222 4.85549598291634 -0.05014178018179008
1074 -3.4604231266377217 -0.9053160448256522 -0.42875995829823754
679 3.828472360242448 0.7722478450239412 -2.052408577478693
680 -0.10603772230425212 -2.743510183018822 5.494933649588844
1077 -1.722711680451437 2.307716005702698 -0.4517381726950744
1078 4.93146530869529 1.5797773075923978 0.03045535456589834
683 1.7671838816210452 4.223404396611654 -1.5520192698409245
684 -2.270713967160223 1.349079577837907 -1.9203806136229662
1081 2.3794557903701667 2.8754111066324586 -0.48375889904248665
1082 -1.6762017728441205 -1.555596610121406 -0.17754144254390983
688 0.772994788361598 -0.9515934724530972 -1.0885045834234126
1085 -1.0931590159765978 -6.461891673190476 1.3863354503115946
687 -0.2679335744616545 -1.653999986704555 1.3741007457152723
1086 -0.7129310783539446 0.38523924533423265 -0.2305292196735987
692 1.1234157271128957 -0.12318075850536964 1.3334445036546851
1089 0.5521086182372187 3.20606860419862 3.5358744872825905
691 -1.3405081720564591 -1.5910475967575952 -0.09741480751240053
1090 0.045151272851039356 1.0940465079925132 2.5118078913074995
696 3.582540699222898 -4.309173443625933 -0.4306045779736481
1093 0.43174602060968775 -0.440767871389717 1.2248066069458148
695 2.504339658172997 -2.3080623191759564 4.928147640624497
1094 4.96907258301708 0.11843541012076328 3.4972672629890744
700 2.430805844216212 -1.7175434136445948 -0.779591010659812
1097 -0.9441187454990712 2.3825902527814407 -0.639692304369526
699 -2.89636209559861 -0.2385672623375718 0.4394745883205191
1098 2.044442377524728 4.9158452654027185 3.017163859227337
703 -3.543606645551971 -1.9968799424501795 -0.9580807067142043
704 -2.7573028542856846 2.7008082673227296 -4.490461309443765
1101 -3.3715774283021287 2.1231404682708095 -2.8834663998032695
1102 -2.3201744914432196 -6.096882610763178 1.9562640500990225
707 -0.3183044057413032 -4.751933446114389 2.176196348775159
708 5.155028576323571 -1.7135003195331626 -1.709373982370272
1105 -2.1616547317116344 1.2867313060905057 -2.326463760768346
1106 -1.3000510331084114 -1.1054313662909605 1.919085677421183
711 2.8495159822525937 8.53566169881942 3.077697190481669
712 3.2549017285555895 3.9136779713442422 -0.987927861794064
1109 -1.8728155739575787 4.427251295829751 1.4078578313595458
1110 -0.03130736798138313 4.017600264894457 0.12497798757762595
715 1.3245478228662964 0.49223441362097015 3.2543860140402163
716 1.7014601039109727 0.3417584923944109 4.964721220222696
1113 5.0912889881544885 0.4608310019549587 1.025482917650386
1114 -1.8147066376448853 -1.8453867371413937 -1.5631210607277624
719 0.9300278029139365 0.29936685103692634 1.3139148359392612
720 1.1718160917645148 1.6168384096120332 3.6394358459475717
1117 -0.7446039001731878 1.2901132821177232 4.815215571421737
1118 2.944555094249885 2.2143819217238976 1.438296183402903
723 -3.6251822717534012 -0.07854464754459185 2.9629273635300604
724 -0.8183923012852847 1.5933902722318591 1.5765524853614736
1121 -0.06511281216244799 3.4913915574571965 -4.347909588306449
1122 -2.707552371632075 2.7424817596092126 -4.3177581702819285
728 4.163585341868444 -4.928842058986136 0.4366202435530762
1125 -5.8778278306310305 0.6020869829040569 0.050759138454232425
727 3.3239798400721936 4.030460449381864 1.0567834791376611
1126 0.6105785081625669 -0.5249338522388941 -3.286201886140237
732 -1.9935500612635317 -1.32316466858468 0.24932720268101802
1129 -2.451352648658038 1.25204932406185 -2.6042089816190512
731 -2.451892582793956 0.5013874602640039 1.1982013822392006
1130 6.299299157506171 -0.2541903015040995 -0.3619102736436874
736 1.3126035458637777 -1.303189570648626 3.1813545296776478
1133 1.3176020143783476 -4.190150180359353 0.5587881250935611
735 2.55579312506354 -2.744286842415885 -4.915139687960111
1134 -4.072455835738212 -2.8052094551422666 -2.848596554727803
740 -1.550007376658369 -0.5676528383620157 -1.7084569572963715
1137 3.0815580990020544 1.1431294586643588 1.5965166070365846
739 -1.594919487908122 -5.007339145762297 -1.8644587714093435
1138 0.21391979569479946 -1.5974505023840908 -2.394357694100398
743 -1.2216385223527135 -0.22113258873248318 -1.1289610997483288
744 -5.095516092746651 1.024996704268124 -2.145349945415259
1141 -3.0725169152508407 -0.9152565221871064 -4.266766713858263
1142 1.6977435104637797 -0.7652257345851976 -0.8457788575130359
747 1.1744409941726683 0.7383042953848478 0.2453345401010247
748 -0.39612093611636745 1.8097228301229986 -0.68895790245817
1145 -0.8509795258024382 -0.8196359728709995 6.240888088543394
1146 1.3544131022150194 -0.25394532004387654 -1.1681120168951462
751 -3.698373295347925 -2.1201332447293124 -2.9473215950134
752 3.2831569149081727 0.9448271127850548 -0.8675201937122008
1149 -3.5420383361021046 -0.6747532864512098 0.33131625619017396
1150 2.074227402767477 -3.8705501398275244 -1.1424446169814837
755 -3.597356617842948 -0.6871298386683572 5.578760808385249
756 -0.633440218238366 1.0865394403735313 -1.4646936839656168
1153 -3.4240785070101203 1.5446640954423758 -2.4978841676953616
1154 1.2410080439565574 0.29446468789270885 -2.593226687540118
759 -3.392551659257498 0.6930840346505597 7.758940799272416
760 -0.45560923807618786 -2.6619901608577217 1.437333479454522
1157 -6.878902543260385 -3.788528037706379 -0.21160576481999102
1158 -1.868321599249698 -0.8814585698594041 -1.970345268183664
763 3.1192125379276208 -1.4898268167543178 -0.19673040600503855
764 2.8030056982350255 -2.9241070799947946 -2.357112707916966
1161 -1.1073190038188738 -0.9994921680406008 -0.08646210740151875
1162 1.4906783631924496 4.879068674525265 -4.520448243143588
768 -3.003512644920388 -5.694676515369765 -4.169653568423208
1165 -3.5231970329716433 0.7754662465749879 -2.1663088344244845
767 -0.17499163098872697 3.427867357119467 0.9189357556512839
1166 -1.365814734746513 -0.19629550815916583 -4.680128889827253
772 0.1639154078514753 1.9446807368888714 -3.789770338001463
1169 -1.0353693225464755 -0.5938312056208342 -3.688575809243603
771 5.364013317647642 1.4479790606298184 -1.4924106498965721
1170 -0.15984963376171984 -2.423674040909609 -5.367123688193694
776 -1.6123447980071406 -0.6778669106440575 4.147635440142281
1173 -1.7744594076785916 0.6315624269363421 0.057922183999303115
775 4.7243087044728895 0.6913672528945901 1.8056370240510335
1174 -0.03094155428474295 0.28281176619535053 2.4850274568528326
780 -0.7611514974632789 0.8444640757376395 5.847300629101635
1177 -1.317575166543011 -3.327134746636086 -4.161259666279868
779 0.9913338278009871 -1.7041187483702136 -3.14481639219487
1178 -0.8899376917292184 -5.764443443919645 1.6719901000587547
783 -7.338053283018074 2.3943190790008697 1.5260537045531541
784 -0.8967063541499941 0.37266859432987476 3.024001501855137
1181 -0.8996509377609532 -0.6223799355312268 -2.004972158524897
1182 5.293441030371904 -0.7835094184490047 2.165502392242966
787 0.5554602548331746 -1.0347574152637522 3.3419600743615003
788 6.357864458640986 -0.2704872451688054 -0.29033820434522084
1185 1.510078501415168 -5.8877423974178065 -3.29056546459407
1186 2.8241924764742414 2.4672954992363767 -7.367529683624156
791 2.740279072149793 1.8538093106592315 4.553007412304176
792 -1.8967804928154697 2.315183652464567 -1.5138807948481356
1189 2.1569976781260216 -1.6128369367526425 1.3975486050430224
1190 -0.9627199895518437 10.405025250795395 1.3756321505750149
795 -0.38871864215789614 1.9428387524802766 -2.749812121909146
796 -2.652559994425443 -7.4185482139630246 -5.165359603367505
1193 3.04471271345196 2.119888164284686 0.8716740401168427
1194 3.7444585119255342 2.865475672276726 -0.9102792204739496
799 -2.158277833381512 2.562188747266685 0.7089152736569665
800 -3.9105346265563146 -1.13547579653969 -2.2857957834926985
1197 -0.07396794567981332 -2.2847181895281445 -0.870829951806816
1198 2.5687403708871113 1.668922661664831 0.3457019562286395
803 2.6411358263922096 -2.9114156407537126 1.1071715940599185
804 0.4690652750768057 -1.3264787701214618 -0.03371069245258538
1201 5.320032783372577 -3.266498907766746 0.749028495209009
1202 -4.899040259442296 -1.330335817396335 1.2739414918783583
843 0.3187899419206403 0.5396531813336485 0.42457532021170497
1241 3.5939785863263807 -3.885432062457339 -4.704720931227248
808 -2.254450323442663 0.4396466813137948 1.1134344266978193
1205 1.386144306035789 -0.7809847660711532 -1.1831227240879674
1245 3.5500198713760067 0.6676309778074486 -1.5261085844803994
807 3.640681930963955 -4.152557899697623 1.1849165309233882
1206 -3.7826685110556655 -1.3803422218028276 0.6336618169822891
847 1.9232700832619913 -1.4460736388934254 0.8046103078163725
812 -0.7622055039380503 -2.367286113917186 -2.3930398558188375
1209 -2.2738495795984996 -1.442633544640871 1.9582430812628624
1249 -0.8645328427093959 0.15738001806949098 -1.1681891951916474
811 3.8533337472014364 -4.097089890326401 1.8546837935133607
1210 -2.9967079675215706 3.1124542152963657 -0.21253025991158964
851 1.8871065444320114 -4.9593045129395215 -2.1011874912780524
816 0.8041609617386053 0.6973111536893787 -3.7479788537574286
1213 0.39725671904229537 -3.721228952790796 -0.12804335852645368
1253 4.813029432870018 -3.6272948675312517 -0.3245906034933193
815 -0.53603703066795 -2.741379531087858 -2.280996577905322
1214 -2.287107838583855 -1.9491219204833263 2.0198024641974732
855 -3.187146981857835 -3.2610468874819554 1.7364959253709724
820 -1.8858166125736973 -2.3698585830044805 0.2987632288829105
1217 -1.4271130016410973 -4.303190008015919 -1.6970682257376795
1257 0.18468812483722236 5.704746741118645 2.41908738636222
819 0.26648864018513246 2.174342027119289 -0.521331241776326
1218 4.314228129814997 2.7412175403533987 -4.121733681253926
859 0.09935236443230402 4.867420595341925 -4.711940622935792
823 1.6959928465278873 0.005087358034780432 0.7236937090108008
824 2.404648196496415 1.1659852867578278 2.964320782913516
1221 -0.08599489701959967 1.2718802632366237 1.7576181147746672
1222 -3.169952637630021 1.0533266917671913 0.5183384053675707
863 -2.902709173809611 -2.5484052216395714 -1.3961000558973216
1261 0.595879453671687 1.6386082226952474 -2.1493785579507576
827 0.15908094803735406 1.2809248483081421 -2.588565247521901
828 -4.694840690498605 5.034337669433555 0.8492066727456851
1225 0.8008143979618477 -2.077234129521272 3.620686286693528
1226 1.9809813686143307 1.5612331156956178 -3.914097386455487
867 2.3652409800714134 -6.578565641157255 0.7072936460047635
1265 3.2884334247288054 1.6582385100542947 -4.034355283182098
831 -2.1100858216037266 0.21266358386739628 2.6700947951532643
832 -0.366501278498113 -0.6229301072297779 1.886619384938456
1229 3.182505736785202 2.368421493086828 1.9346505035984072
1230 -0.6399781022275486 0.3188887673744369 0.7096294934679254
871 -0.07417029388931685 0.6086080543667305 -7.419760026055711
1269 -3.1264374036037084 0.581376178471522 3.862828533685465
835 1.0989824107852757 0.1771414665267535 -0.1802516335274685
836 -0.9809670995057291 -2.6258344529175695 -0.757827487089036
1233 -2.670825832478389 -2.153373779850241 2.4452871070839635
1234 -0.5970074110865363 -3.8412858555717007 1.8033689736544454
875 -1.8011343106245183 0.25412728641075666 -1.1665612880053602
1273 2.2793142646855364 0.4902986741408704 0.30679497944117246
839 2.6818431632155235 4.548318291196698 4.450207863006957
840 -6.660501432347471 -0.10531157499583357 4.544090171223538
1237 0.884916503027067 -2.820393025233989 0.8164555431488437
1238 0.6265247168487788 2.400093202770414 0.5174476343811965
879 -1.341650928636341 -3.2214950071342625 -0.9400155216549829
1277 -3.624868656385016 -4.134935755634055 -0.6969198899119534
844 1.197653420310152 -1.181116169277729 -3.712661167648067
1242 0.9676551750703853 -1.475441494754433 -3.4123610582769426
883 1.428064499245211 4.794491473127762 1.8504645348071205
1281 -3.9212705441521005 -3.9019131246204593 -2.0203119897290898
848 4.848829196712688 -1.6854460415689523 3.071822706390049
1285 4.353100747780616 7.03485103721498 3.362162846046735
1246 -3.4845647968135323 2.014105907744219 1.9165278158913417
887 -1.9471686631823313 -2.8661373464595554 -2.08384598357825
852 0.2177253360493737 -3.738649584910529 2.0720484037361433
1289 2.984307965946374 -0.7901712688068322 0.7341896328722645
1250 2.3123566434541787 -1.6869605742325775 -1.0488262027719197
891 1.8407799588470064 0.5843756462478806 -0.5850093273927605
856 1.5751292326032234 -1.3364380560051652 3.375162573180648
1293 3.629372415983885 0.8069300332590557 -5.207992839496406
1254 -0.8069834961704214 0.5302630942902813 0.013644633712116272
895 -3.796347703498717 -0.45035503753958367 1.4276283098276008
860 1.3782795341744725 0.12662284650679312 -1.2622374859239565
1297 -0.5884777495158507 -3.203167826047827 -0.907547994427841
1258 1.2139356038981512 1.5202220420568198 0.7483305304593879
899 1.6557258109036472 -1.1258489721975473 3.6297691678742243
864 -4.42698031460969 -2.725883449066383 -0.20452066737642022
1262 5.060390977805663 -3.058440956757405 0.6205328368502155
903 2.713638349414296 5.375928908393023 -1.5929946402527422
1301 2.5659809302312806 4.4370992959296665 0.4641717285842875
868 -1.1363320565544557 -0.32163941608992386 -0.012798751987538215
1266 -3.805932315246886 -2.519100873800797 2.4301698981759463
907 0.4938598248458814 2.8654168980917847 3.034113560492138
1305 4.407966198472725 1.5680773218937718 5.549841522399276
872 2.768442039005626 1.8598311961319836 2.068935049763644
1270 -4.185809118669269 -1.4990489017284259 -0.3211949401560283
911 -1.515099685906484 -5.040508933006381 0.3754681073855488
1309 -0.7719308903847389 7.627569988393187 1.309514384985677
876 -4.099612974303927 -5.975258459460257 1.9171610594171917
1274 -3.3507675647267305 -7.766599311471405 -1.0403956756805057
915 1.5092612609226772 -4.619361925221146 -1.3299902449464636
1313 2.7129939237062044 2.9730765536172896 3.9828425602924518
880 0.9092497319914796 5.143274566568185 -4.361066004811915
1278 2.841319038900362 1.1808969496961128 -0.7857386903568156
919 0.2830048819825053 -0.33619818095367 3.205655827564207
1317 -1.9697601746833675 -2.1391888441458433 1.891705399384215
884 -1.0774729516247028 -3.8667441500091497 3.733807473581577
1282 1.1094991897098803 4.274193743501975 -4.495484929389456
923 3.829011351886686 5.061539070531066 1.6746754491893336
1321 -0.5157539344502284 -1.9219560521518158 -6.8658903733809415
888 -0.8736402960100988 2.3316806738593963 2.7586979186581395
1325 0.8181000744853847 1.648094514805538 1.6879933937241844
1286 3.010101953080184 0.5313445589392138 1.9445140790455921
927 -3.075356765387681 -0.35355710012477387 -2.786833388299071
892 1.9006548100641223 0.24653009515794772 -3.5089833954898375
1329 -0.16546589035550227 -0.25211630972281757 -1.3410699032452473
1290 -3.7148579720224726 5.444243278991128 -0.008679797602502188
931 -4.018416850589422 3.1549994818724967 0.6390410721920649
896 0.6282444212269359 0.24121054604013495 -4.656549479250485
1333 -2.5140702825199943 -1.0281681245569543 0.12013768744884186
1294 -3.3776991249422834 1.776200222345639 -3.280118284100911
935 -0.10975345175417964 -1.755934369206164 -7.729853576564131
900 -3.206742321970334 0.6993931254969605 -2.5444389791543554
1337 4.396424250048478 1.0686347461948595 -0.7494062886145766
1298 -0.6260974054968425 0.29819116183359473 1.4025305311849998
939 -4.082310495840703 -6.728014560859757 3.8673173070640114
904 2.717876819257239 -1.105108924714295 2.9496397748633516
1302 5.355253876248576 -2.6666406720640996 3.4323438004355564
943 1.7518463260924193 -0.11152579448399585 -1.4157667700150969
1341 2.7777373056211525 -1.209739718445193 3.4685434184837036
908 -1.3056615531814961 2.428250356713956 0.008313944399047828
1306 -4.524429072438529 -5.670390999711869 -0.7063947033740183
947 -1.7560738097984412 2.9632218951956326 -0.6373632349932533
1345 3.1095110235389916 5.37145965588705 1.8961107992450719
912 -2.1999008578872816 0.8393745815476431 2.672808569069994
1310 -0.8328497589359296 0.06360215221842877 -1.3325816831998736
951 1.0699623701295056 1.434693082688886 -1.2943609926501067
1349 -0.3278418663943632 0.21803627360824623 -5.369140894657374
916 2.6905464275722974 -4.345429183773904 -4.551365086707359
1314 -1.5854853654854315 1.5121999829836064 0.2005327517628121
955 -3.0201717008443243 2.7145133448897605 1.652055925838073
1353 -0.27158057951158066 5.112542826519888 4.135981924268562
920 -1.488710519782371 2.7051279698053463 0.8481009606174745
1318 -2.3582539194008145 -1.6154954322596782 0.4129473988954783
959 1.8905160312256608 1.0706133996702332 2.5606526400148577
1357 0.8031180940234488 1.5891282648716991 -4.778631911813931
924 -0.9123631467829166 2.7593205505955796 -2.0396546990197097
1322 4.911991003241764 3.35941487406915 -1.2030851592629925
963 6.457726738931625 -4.685675039662079 -0.2897934100936935
1361 6.882566481290008 0.5949943973012678 -0.8109755473623578
928 -4.813380564413036 -4.3280251012806925 -0.24061910746782256
1365 -4.619175485211961 -1.9924726175092207 -2.377337008629314
1326 3.0060106906278423 -6.065659031312733 -3.9247565634817976
967 2.5635116152070805 -2.5515311256531876 1.1268012700139853
932 -2.4512392565446652 2.1698288872994937 -2.998636376961833
1369 -0.7822685573590898 0.33969644400220905 5.69859965447201
1330 0.8852256968847853 3.520354714865721 1.8202147159854276
971 -3.3388647704121452 2.293053023844983 3.974397248408167
936 0.8676264904432084 -4.969443120174892 -2.788461607687877
1373 -3.160945543861906 -0.4957486816866264 1.9192157597629569
1334 2.982622509864725 -0.17907597047884272 -5.338104897022503
975 4.381696107982878 -1.7647463417800378 1.774634155548258
940 1.0009625255990493 1.6989638815171717 -2.3019859457239464
1377 1.0714773626406078 2.381201306487626 3.881461323013606
1338 0.3544357645211825 3.426196830720371 -0.44248786951060204
979 0.3562506072162024 1.4124039959680166 -0.5450425824607191
944 -0.9964090409224013 -0.7947791085547578 2.8076213998274953
1342 -5.416055271134177 -0.042959944812996434 0.8077982626827299
983 1.572761539410127 -0.27470108519582465 3.3917244884925792
1381 1.6679884017621385 -0.43488065358430045 -0.18388709957066737
948 -3.863252309907484 1.5241167059855747 -5.33942449032038
1346 -1.9251450617587593 -0.44873858120138943 2.0150870483416976
987 -5.8315952096442505 -1.3386273527634411 5.700284723735937
1385 -2.0533618002016856 -3.9026615928359725 -0.4504584074495155
952 2.7217108503938197 -2.8793258806816118 -1.0358297439922506
1350 4.33579084267097 1.8380050370248227 -0.2296057809949152
991 -0.6964776343795125 -4.432396841022486 -0.5660404714800163
1389 -0.08699783444896518 2.565161290391378 1.4869484983723849
956 -0.8033183323887658 0.7257115818542067 1.7199820603449676
1354 8.485600299731583 0.2145626555206878 1.3022860715800413
995 -1.6647087675628103 0.9679443946259192 -1.4717218266184509
1393 6.287190314702889 -1.2797680532209876 5.862688265309205
960 -0.8135103041347413 2.2829316529635006 0.7874667505820542
1358 0.5388562221221469 -1.4874223953559333 2.008357659931555
999 1.0272637372137206 3.531504207433937 -4.266569451784893
1397 -2.068915078280898 1.4460289710122567 -0.9048873971067011
964 -0.6297272277330691 1.8935831103739706 0.29571693216397954
1362 -1.931180585843715 1.9029011603528574 -2.5586233998628516
1003 2.2924589779967977 0.9012455531634485 -1.3957133169643743
1004 -1.4235966955133432 1.1667544644824674 5.77518949158276
1401 0.40403789123987827 -0.9567324948250675 -0.2715837581770546
1402 2.7758197889318756 4.511220929231352 -3.507987929440625
968 -0.2984219146500358 4.357762164497011 1.968934677279484
1008 -1.362737540287792 -2.0227682039624764 4.294740793688873
1405 1.924012848551344 2.1716680368364125 -2.910099281590583
1366 -2.2413622482893247 -6.096174067423895 -2.828563018675328
1007 -2.1083168594137596 1.0620220907673397 1.2197244670955336
1406 0.4241293812975659 -0.3117859714808539 0.215551842622251
972 -1.9301696763000857 -2.013780360740436 -3.7163239159060657
1012 -1.4105756561196199 1.250903576974966 1.4382650243278705
1409 3.0327673293782293 -0.14426563124092068 0.6331939719242622
1370 -1.7744741592349635 -1.4469923685264425 1.3657672012793254
1011 0.11591618974544268 -3.597253993621131 -1.0133279464876328
1410 0.9955050236794232 -1.2961930880252142 2.910830618189239
976 1.238262112856477 1.4399738574974097 -2.1251021708601217
1016 -0.8539924778428258 -1.8653673646683646 0.20690699721675992
1413 4.2557676056520135 -1.6288244147933149 2.647978459130068
1374 3.58389537094165 -2.256079257931639 3.1066972899487135
1015 -0.8211525988681183 1.8574318609783482 0.44403153921893396
1414 -1.9674179210192857 2.2704250219067155 6.630276920960686
980 1.4871450283729493 -0.31061087290966416 -0.9348076269943709
1020 1.894561766642333 -3.466944427982496 -4.356131649950593
1417 0.361141310051259 -5.608663332288409 0.00793974268298891
1378 -0.9228222882904593 4.27472555455981 1.8405745390512027
1019 3.7917116400622417 1.454544176222938 -1.8688564209085512
1418 -0.2078015121233865 1.4835491186820962 0.8980403793706049
984 2.8202368594207274 -2.6716330140142404 -0.511387357929475
1382 -0.6169752985501886 -2.1315711586139585 1.6252796480030365
1023 2.3969095997010954 -2.12041517750303 2.7621731577194435
1024 -2.346523049512376 -2.6609525633058455 0.3604797770885168
1421 -2.8330388546244434 -1.7392642290446372 0.9333935488653866
1422 0.011181436161616197 -3.846316209885175 -1.477345423388983
988 -0.45385313392867654 -3.576383334703607 1.658248225773444
1386 0.07059169258730455 -2.189012349316357 3.706236944889846
1027 0.4219774096630368 -4.097751065120416 1.549354023767297
1028 6.640538393299288 -3.667483706732927 -3.421216271890689
1425 -0.05904851179785441 3.344612902402547 4.398017203468706
1426 0.5689193761982506 -1.2686472843164132 -1.264637337784476
992 -0.01237844941745454 -2.943641780947844 0.6791800763269589
1390 -3.3126504517293687 0.39651367000982035 2.820215564573753
1031 0.44145836929399956 -4.29643412549503 0.378924115742746
1032 2.61848117078989 -2.2923394424249914 3.2756972283567007
1429 -0.4618545667058319 -2.582884282594119 2.030756160611008
1430 0.683300933804975 1.606773961469687 3.0072378677347817
996 0.5071216449938731 -3.2736489277418146 2.2290622177314603
1394 -0.6790025697254843 -1.5898139667044267 -1.1529352763475351
1035 -0.24904406646427343 -0.7811159635207485 -6.170899154190233
1036 2.637568189901446 2.4441674435011076 1.2173972384581997
1433 -2.6222865439383134 -1.9473074353369053 -1.1480618707517978
1434 1.2124472009249494 1.6059835317512252 4.11868078114462
1000 -0.6375199544650273 0.7472747221087253 2.05897732606283
1398 3.01878394556623 2.208940344474859 2.7222425316699304
1039 -1.4139959655613836 0.6982634512551031 -0.4485865834348545
1040 -3.2495975875134535 -3.151319032368825 -0.539161831770078
1437 -1.074191440937582 -0.2153719144410687 -2.5301876774306464
1438 -0.3913288225619798 -4.041424502675466 -2.5696707734843836
1043 0.9915275199399066 1.3740336010750256 -2.3627977931415733
1044 -1.0200873447730925 1.76429818378404 -3.6058717185805493
1441 5.774850824482177 -1.3666803897927329 0.3019845523410637
1442 -3.802071435764392 -0.1458127840973322 -2.2380529870243278
1048 -1.4126111393350878 -1.880554045853168 4.230199329110964
1445 -1.1800808186233793 0.31091671231110707 -0.0740349089389309
1047 4.486402541280981 -1.9115130295876968 0.4580873687799305
1446 2.5964708069057827 -1.9345241415635575 0.35294849021530866
1052 -3.2096813616665067 -3.800829318188283 2.888358205559133
1449 2.0027006992926877 1.2242290779435767 0.9133262581025837
1051 2.143905416239335 -4.693497525574119 3.1008690565721504
1450 3.6506915261359314 -8.626141346852371 0.12477603624040094
1056 3.295917755119623 -3.1039098654079105 -2.311380239596505
1453 2.4829477382076006 -3.0753489197131496 -7.925528356894192
1055 0.8669934334881817 -0.3225483129341789 -3.3776052969330497
1454 1.6906808867236762 1.1684328903753485 5.029924176492984
1060 2.5184457261414646 3.8282209684043824 2.553518075078293
1457 -3.041379237982901 3.6121640045428145 -0.8733958937783578
1059 1.7470478253735642 1.0830994317436948 2.140452086627055
1458 2.016964980161953 1.4795570656862362 -3.331760108376261
1063 1.19049409813314 -1.037762053365967 4.7063799884851285
1064 -1.07594860740914 -1.75768873162916 2.3140000158369034
1461 -4.274732357698202 0.3594184464015443 -1.772767962154154
1462 2.1500948816645247 -0.0272120824795164 -1.7923675658270695
1067 1.865716425156894 -3.0213579881464443 -1.6556960716271476
1068 2.3219803095074916 1.4131660886557524 -0.5955570116837501
1465 -0.6224069736232433 -3.685573885555028 -6.207892932884029
1466 -0.05239666170335671 0.7085516931195921 1.0605571689359803
1071 4.973899847055549 4.469316351684317 1.4447805914051262
1072 0.3111588184084011 2.4567713558141975 1.609538614905307
1469 2.9246340032181655 -3.0734028595580534 2.7511670061009226
1470 -1.665225884078153 -0.10402352696928777 -0.1224151624444376
1075 3.64563861320982 1.7921940466398256 -1.0303622545036728
1076 0.84667090844873 -0.5836109224949263 4.638068947425817
1473 0.22737728521909673 -1.9956347663165528 -2.846934323456958
1474 1.134363616873589 -1.6272105652597308 0.798602154579162
1079 2.886467676328707 -0.32526562915945634 1.4420628389408914
1080 6.13681184930968 -3.4718235752175053 -4.9832017825922685
1477 -1.1842671303803984 2.3976866510816373 0.9478580924655019
1478 -4.123888855807823 -1.1701433869355264 -0.9328144233243204
1083 1.6956476296691858 2.048428119209588 -5.217965002865159
1084 -3.92974073325306 -0.8624382310185684 0.8005791641133644
1481 -0.16174336790835492 0.9476669041389046 -2.501676246796151
1482 -2.3417583859962963 2.7492847679934767 4.64349265490894
1088 -0.657635597258418 0.2154865978115562 -0.21327470434271392
1485 -5.001197291891475 -0.13375722437075904 1.9944540124513916
1087 -4.1121728334437435 5.346980186970662 0.4497749856733748
1486 -4.3968949934693855 -0.4922796772914254 -1.9979588421040448
1092 -1.0863622826900288 1.6201002433481118 1.4966785805802143
1489 2.917021637969433 -1.0272685492818787 4.43518136480609
1091 -1.8159101724194235 -2.676391378158949 3.6801015721846437
1490 2.5516666170071396 1.9305921467097018 -3.048903130422384
1096 -0.9955922067473842 -4.1308668897541 4.530097867968849
1493 5.900070969840077 -0.7702956538905326 1.8609093937009045
1095 3.5687274849228796 3.8965855660202005 2.4120642860359727
1494 1.9977805615721602 1.6331799997068253 -1.751651004855761
1100 4.908627131793428 -5.314585472230747 3.3880289466872675
1497 -0.9681776651739226 1.5608751102318763 0.3872166753247526
1099 0.9600573831802356 -0.17324888997843388 -3.8967288645087312
1498 1.134051250767331 -1.183523762689282 -4.00545690790207
1103 -1.566126696775973 0.6654807135394141 0.3060135907881573
1104 -0.653737472488436 -1.1064126041878168 1.6783805976142259
1501 4.428186407484051 -2.9719450287916858 2.3441621108987745
1502 -2.9953230602181575 -0.8655152726101246 0.23084844780299132
1107 -0.30781493015174827 -4.244957623867729 -2.789688658076979
1108 -0.3407529050280405 -0.31704713421177966 0.7360678390797628
1505 -0.11972708713361867 -2.9512726107831724 3.4767557984804
1506 -0.17341405596746365 -4.662046954999515 -2.1029647867088985
1111 -3.498367066420751 1.184734057906561 -0.7371722557601021
1112 1.4102228206415313 0.7577816668862744 5.147715901355309
1509 -3.426051195458244 -1.5469471599325266 -1.4762585884992134
1510 -4.235251370554434 1.6780409548512563 -5.390487479525565
1115 -4.953850627315973 2.1614840894379843 -0.7087318992910897
1116 -5.0915191913333295 0.7929879247540584 -0.01667524637072346
1513 -0.6237870388572557 2.0488866213089847 -2.577478373868079
1514 0.5327364210637623 -1.192359975064494 -1.4356358934579128
1119 1.7446875980190002 1.2626130724467084 0.21927558888592638
1120 -2.576663784726082 1.5267421890190682 1.7017919627106313
1517 3.025885668776242 0.4352900967167282 3.007632979539829
1518 -1.1935541267009844 3.390979379880814 -0.7771366899247614
1123 -2.6200847613548564 2.0803361487728798 -1.2129743568296703
1124 6.471418747769935 -1.6936955218653207 4.036021813323124
1521 2.6255557654509247 2.6908908066280124 2.5081464123456585
1522 3.221332434782847 -5.873603314557516 0.022926464407198567
1128 -1.2354541081673351 1.5363554529732186 -0.492628156272369
1525 -1.449900179899718 2.6529080912499543 2.9700816418917246
1127 -4.6876610583719724 -0.6793123862444613 -3.8220696692812983
1526 0.1945241980473111 -3.1378587137450915 1.3552770958430942
1132 -0.08880162686670345 -1.3194503355160672 -0.7399602155616775
1529 -0.38110339636582646 1.3256878551147269 2.0506206473944295
1131 -4.683949001938191 -0.998374820214769 -0.7510390644019873
1530 -0.18904086096852438 -3.993456434549186 -0.7064719505734479
1136 3.4538106205616548 -2.2308143156125366 6.616103407686243
1533 3.51948166168997 0.06993177225551708 -0.5736708725201435
1135 2.3302656621259548 0.6261250462736953 -0.08613118308558433
1534 5.082131184543956 -1.8146044575426783 2.6365183452152574
1140 -0.18543133383928365 3.8880956683406356 0.9409677559707631
1537 0.41153815484011325 -2.7013365559417046 2.59652783329955
1139 -1.7636104227332532 3.6407381655765008 0.41490358932184934
1538 0.08165677001836796 2.7775022749138074 -2.293070110580045
1143 3.9983729780080846 4.364239381743796 -0.03110183063357886
1144 -1.668555433625019 -1.4481245021431535 1.930969138934986
1541 -2.8782767193926495 1.00722106703847 -1.6534107165345726
1542 1.2692303041996411 -2.486486009207408 -2.0691839318736096
1147 -0.025785943902106336 -2.799907295014149 -2.1788566952957913
1148 -5.062194171090106 0.5077967318171789 -1.0217834377753432
1545 4.633512452762952 -0.8675763245712751 2.416191316871443
1546 5.809914996978507 2.4150457037232496 0.42546315563349396
1151 -2.0917257240397 -1.323947861033465 -2.917897955376939
1152 -0.1935686801409716 1.5823764194976282 2.6544785275393483
1549 -2.3852625301283172 2.544393782898464 2.202296469624748
1550 0.97040312111442 -0.008873430559887109 2.7760750980374516
1155 -4.704893426841721 -1.8129045519316642 0.16949063512182466
1156 -0.9225579576244479 0.8036274980606128 0.5020991659045404
1553 2.8861705113641065 -0.9569230640780678 -4.319066225168684
1554 -5.748423395313407 -4.134200642285988 1.6357114933297605
1159 -2.1923562952544295 -1.9469861590374797 -1.3486076763998847
1160 -6.27876612105108 -2.100149010058695 0.9958860387797094
1557 5.579268197379224 -0.7165895588511718 4.56183902418466
1558 -2.3154956068766532 3.272580027406036 -2.8986399065089703
1163 -0.059946224929467266 -0.7226466484897129 -1.7891038901571823
1164 -1.489346969291853 1.4872377913363821 -0.5089530901911287
1561 -2.028474160077976 0.7469002334793099 -6.965636989755218
1562 -0.9881923741260213 -1.7589845072923413 -4.694058467252607
1168 1.288216561104536 -3.6668416877062673 -2.3881093961434714
1565 -1.2655299830635272 2.3323506886035177 -1.6066943777721074
1167 -1.4933819532398622 -0.391419735671446 -1.0083205911668949
1566 -1.138983183733725 -1.0557056662685371 -5.447502626813081
1172 0.5542544598724517 -0.7785096589372849 0.5324035900606338
1569 1.027306177973162 -1.538208446209599 -4.029365334576944
1171 -0.5743263381297323 2.0301188029051827 1.195471992406223
1570 2.1001853628870943 0.49566213337315507 0.4732319547998307
1176 0.547761797484737 0.6637786608094636 5.532757456387071
1573 1.895123390131978 -2.084024129820658 -2.591617395491127
1175 -2.150346028513623 0.16402049341414388 -2.496727812203351
1574 1.2814453984616898 -1.106137063631487 -4.702769775402187
1180 -3.6317488539719265 1.2145286288653665 -3.638205225679553
1577 -2.1656206694889972 -1.452154586547965 -1.8788018996712377
1179 -0.4344447658592602 0.30079390466459227 3.4128087550640474
1578 -5.637521937702385 -0.23054574342640505 -2.826678842588721
1183 -3.2361776410080774 0.539823455746076 0.7611835451741819
1184 -2.1338139607772257 1.5146952766633186 2.1256221341181205
1581 3.0130736491123074 0.0033164158118500413 2.9040479628313243
1582 3.4215284304256732 -0.3016456020831986 -5.268765670430811
1187 -0.7405916025617395 -5.928682034173761 2.4768266642821333
1188 1.1111633960010079 0.18835122931307788 1.8320681561523424
1585 -2.149814289313965 -2.8451116045040825 -3.2040618731831843
1586 -5.213756094962739 3.24162560241403 -3.1388078379804045
1191 6.20157842327868 0.12472875270182948 -0.4939061494112688
1192 -1.8334251877845353 -2.9530502804372425 1.8785033958711985
1589 3.3239208952533112 1.839591366865576 -3.6640559975345792
1590 2.297789401451 -1.0124506295515454 2.126536525567395
1195 2.5693227076044325 1.0603875258578006 1.6298715384341131
1196 -3.483197421810785 -1.8206625794290225 0.5357833105390839
1593 -2.868947531278022 -2.627772240660675 3.757412176222026
1594 2.7014383099938923 0.2895150626888252 -2.8365267109119525
1199 0.8636329645965644 3.149186300370487 1.686332499470373
1200 3.5839303905815445 -2.093444196132714 0.7224100125060517
1597 7.669443293558605 -3.4188667372272845 0.1403581727748316
1598 -0.9309605711600818 0.008346638309557843 -0.985924657481397
1203 1.0633994481133093 2.2003521017754615 0.4633905274069907
1204 4.821010425066364 3.323572489644661 -0.3091885670045842
1601 -1.3838701210135926 3.1279877119229265 5.401109478617131
1602 2.663909545729407 2.6209979848074503 2.245219287386747
1243 -5.175309114269657 -1.5184426941035005 5.859019264245055
1641 0.18972829269470495 -1.8020328722739491 -3.023518688158145
1208 -1.6782091808274862 -2.4817102206186727 1.3923081185790145
1605 -3.9641439298382974 2.7794924236609586 -4.750125487628932
1645 0.4943864443581238 -4.756579305908163 -0.44973065076362323
1207 4.8617868294471505 -2.674093877264735 -3.247180148335079
1606 0.9222301618234087 -1.209202154586009 2.8836581268766066
1247 -1.1036928073823082 3.9647190596651907 -2.76917984266514
1212 -2.208509801407621 1.4766724566550793 7.627660278563027
1609 5.1703777423384 -0.17304636685371672 -2.9277634677095326
1649 -0.709115149177629 3.76268986827751 -1.9858394584750567
1211 4.224112305431815 -3.1091656800578753 -2.0030397716991306
1610 0.772270319458265 2.250594004385712 0.9607339609883219
1251 -0.7167436280140366 -5.394659976166354 8.302514054274457
1216 1.4707927752617573 2.377366223147255 -0.5596328429799837
1613 1.4010336542113724 1.992786584191432 1.4490556576939313
1653 2.299818719504297 0.3995805430592785 -3.2215272287892915
1215 1.584836553419648 3.475172084413942 -0.9451498664243381
1614 0.5618748616251198 -2.09795727312626 4.984450143667099
1255 -3.4275266953932206 1.6611102220820633 1.1782112686545771
1220 -0.2773848534234775 -1.3015513756841544 -4.201705303698154
1617 -3.5879001641128303 1.4214118901572752 -1.502523019015661
1657 2.3390139331441104 0.3488803208063264 0.17628336035064562
1219 0.43605888413810295 -2.4167646185185383 1.6231719233081665
1618 0.4794170647517073 1.6576003232664172 1.6123415896136981
1259 1.5162647492721588 -0.9011748705879494 0.31348296701388734
1223 2.898036131358075 6.220276246189965 0.8020101048577292
1224 -2.246778683694942 3.593353864332705 -1.679501772165809
1621 -1.0447130759873693 -0.8557893550301777 2.736642675311178
1622 3.870414518557597 2.6991663408685533 2.1367600902609856
1263 -2.8312028341388205 -0.5001104156131511 1.2390814816519264
1661 -2.4184990481556143 1.1920767866191342 -2.7565765610209314
1227 2.3625756233224795 8.944014732029967 -0.08798926805140413
1228 1.5416507621330875 2.008361251400165 -1.3625584101993873
1625 4.277090216833138 1.2470943327181108 -1.4595634018404156
1626 3.420828077930376 4.669584370139695 -4.770611130931986
1267 2.702722875384017 0.8368222080886243 -0.6664328070328094
1665 4.0172311026781955 1.254443975585315 -5.6809577711883446
1231 2.448675008051687 2.334868028115422 2.7874514878621346
1232 -0.5576075712590455 -2.323425787662753 -1.3474011866923348
1629 -0.019870833738983466 -5.477032295934698 -2.871131962523873
1630 1.4606007741533955 3.799546914692318 -0.07832487949801288
1271 -4.549007704745003 2.012097239372781 -1.4200778316553135
1669 0.4948396920772349 -2.8151176823212527 -4.246388695846263
1235 2.3354180288344875 5.858016845709707 -1.7498864448748028
1236 -0.6815655629519909 -0.0882164695796154 -5.735761754952539
1633 3.0205958153914043 -0.710076557614721 -2.9465503322241586
1634 -2.2538382539409416 2.909587194629499 -1.7918366809358697
1275 1.8393637190264502 -1.489877553857424 -3.280404708313182
1673 -1.2519342673946785 1.799784247232552 -2.8666894196661428
1239 2.90257254665797 -3.965316808035096 -2.502479165863653
1240 0.5108632056259214 2.283950845829319 4.255720542759445
1637 -1.8302549336867602 -0.9177437081169071 0.7366057517084947
1638 -0.9194361141756192 -0.14836337703017893 -3.971500144645709
1279 -5.72792214694536 -3.642778903188175 -2.169318285175826
1677 -4.082073533104975 1.7024008374084245 0.5400024731996708
1244 2.664394360448306 0.9066832381704388 1.109636706506503
1642 -0.7008206257320063 -1.2367174761749733 2.3109530655352293
1283 -2.034717504302085 1.4961956949555164 -1.4336285142883984
1681 0.2360805325271988 -3.7027250217967596 0.7250050516536515
1248 0.5339803766508696 0.8462860264980061 -2.022129177153526
1685 -1.1219769555417098 1.8738048523738875 1.280695831091536
1646 -2.086292466254951 2.1323378941469784 0.9119708723368543
1287 0.25307911714919357 -1.9542588027057737 0.5216655947431701
1252 1.3270814764663055 1.5078439170974651 1.7721679967660562
1689 0.5485216547231204 -1.81808932912388 4.757856589537386
1650 -8.142943487316657 2.184495135270846 0.48168280675229563
1291 1.7601480195980064 2.1843652148807213 -0.7835904114714453
1256 -0.8049218614647748 0.349374537141198 1.9544049644774284
1693 -2.2564263938434226 7.125161069800535 1.9356102186692437
1654 4.532317339507432 -1.2185262445216862 3.414969109089425
1295 -2.897726597297939 0.279808689204808 -6.920354471065174
1260 2.760437955638541 0.3136141207819921 2.7260365523633716
1697 -4.288387487313905 -1.3933874443975502 -3.396490144969038
1658 -2.0221205744952124 -0.42252634554066226 3.2452585664501865
1299 3.0415020245291093 -1.384297000563199 -1.710644597858341
1264 -4.157701407886465 -2.4295339467512584 -0.548071489155121
1662 -3.451406925777121 4.601477038552713 2.0600664180037787
1303 2.2181101725447236 -0.09686725886652107 0.7616246960737099
1701 -3.0803158634892056 0.40467084628957006 0.2640863501958931
1268 -1.9183622047392086 -5.513535137744085 -3.111701909208565
1666 -2.6802935070447784 1.0676838996175464 2.469606122160037
1307 0.5457389255049875 -5.924136245312404 0.5792989652048797
1705 -0.4081633864082112 -0.2443492198342394 -0.7246091736114094
1272 -1.4715965020078026 -1.8000984979386268 0.3972327097621793
1670 -3.730893121480426 3.0843511454912713 -2.029612710882595
1311 -0.6919434755088111 -0.7771684757735802 -2.705483162702673
1709 3.574014723021188 -7.037525675044198 -5.210610249431132
1276 4.498624877830515 2.9526555233902645 -3.391473753018046
1674 -6.381012730394733 -7.472080329906475 2.5573930767737596
1315 3.862262746507752 0.375018891594994 0.658321900537835
1713 4.70422165876346 1.4955633079723059 -1.6951483146171478
1280 -2.7046377711710767 -3.297095542789829 0.5171575280511753
1678 5.6648607744277 0.3946081479077167 -4.8659105187773735
1319 -2.6772846998730344 2.458576015461736 2.80511187463108
1717 -1.3679157128238864 -0.13622617285001187 4.531273245803769
1284 -1.9931833058648187 -0.10413619395489301 1.3502785941627065
1682 -1.6731770123589993 -3.3961230044846475 -1.0561811401943362
1323 -5.641878794691629 0.741934547434433 0.7577000220905721
1721 1.4178598966616232 -1.6206412364173985 0.6037999278972492
1288 -5.05003827505919 5.1362273245135865 1.8167905995454996
1725 3.1517736653424455 1.3788290091409694 -1.536188086767072
1686 -4.201501645181804 1.1118666943023015 -7.126785786945384
1327 3.643477571839051 -3.312307221414266 4.195648250591724
1292 4.889240133845014 -4.566769530547912 -5.288692147120814
1729 -3.17879036372052 0.5750456532224061 -0.9326054955563325
1690 -1.097330444717778 1.1768354943125459 0.7912229489501915
1331 -3.379065714887385 -2.668442871591121 -0.991903102564676
1296 1.9195944179503812 -2.0299032637964003 0.12790976057580952
1733 1.9284174707397024 -4.471109364882006 -1.371208908598335
1694 -0.48216660988199433 5.6180517924898625 3.6285010656070362
1335 -0.751701882865488 0.7080065473938855 -3.9722414563617487
1300 -1.246359546111411 0.2550304576285215 -1.4388077519127724
1737 2.1027432430990753 2.166089151990021 -1.6291194746125877
1698 -6.26610954832962 -2.2208257821629087 -0.5130848531474218
1339 -0.629026370727875 -0.49432868481097003 0.3516290904656835
1304 -1.936341796766124 0.8773892624687887 -2.2103696895421283
1702 -0.7338310733943106 -2.151912187409681 1.9054433377004885
1343 -2.2805392274386906 -2.5504492596486763 -0.14456870689693668
1741 -2.4297029211062653 0.36796964733466414 -0.2941723007328202
1308 -3.3216551956398135 0.14794660086989023 1.1255406246396924
1706 2.260734830584892 1.1721852554988699 1.4233391990984652
1347 -0.6023269194407083 -6.088424806682023 0.7777114653093207
1745 2.89291903299239 -2.265400000885691 0.6528319356703007
1312 6.824202312877504 -1.721837330899071 -2.6102685531449064
1710 -0.7007777044628005 2.6843168190450024 0.25815976994222906
1351 -7.746055725192387 -2.973842647088016 2.211555059010848
1749 -1.5745709970388546 0.09737032123457019 -0.00026145957551385155
1316 3.176407099889122 0.12862732576454872 4.00983796102332
1714 1.4201277805666157 1.2122251101117132 -3.680221892218131
1355 -1.487421784319016 4.830535244691759 1.6776022778546846
1753 0.9494432893077714 -2.064629275381551 3.273225131649942
1320 7.593731930645844 1.1773311711724648 1.0662594016143627
1718 5.322135692256918 5.354848507096361 1.5741123228186242
1359 0.9474737019831198 -1.8449416040979474 0.6603141004184211
1757 -3.5836821518771727 -4.252808568495412 -2.911183945962529
1324 2.4208302998938356 0.5211566339945433 2.8719337263429194
1722 -3.246366718862215 5.912411015080421 -0.24366379510499886
1363 -3.8073287447088826 0.8767116024183449 0.7645900506530787
1761 2.2646811369266704 1.4538306984435487 -0.29297336179052375
1328 1.1271327615351763 -2.281782074642886 -0.30282185151376656
1765 0.8670348484040675 0.7573876964973111 -1.0145440514305264
1726 -2.403454431763113 -0.6336631873613864 -1.3664269269732974
1367 1.0746275985634068 1.9315533900400164 -0.26282481277238334
1332 4.097811370741519 1.2536476792932207 -0.3264980592938061
1769 2.765624431807326 5.148369243569629 0.4257041518421965
1730 1.8112835689034064 1.4952437131096346 -1.3086798308900807
1371 -5.184912765857098 -2.5880068731896784 -1.6919663067034831
1336 -0.4313757387392231 0.6290229430777873 -0.7752195840882128
1773 0.6089649827640756 -1.9321690759055492 -0.8376861803218015
1734 -3.159313994220282 -4.735071849395559 -3.6582654518501267
1375 1.8449276912021348 -2.804754847798727 -0.2643964225875916
1340 -2.8077600473474305 2.0908105728543145 -3.701828908057034
1777 -0.6448916375540598 -0.6460722346605334 3.0433069920796494
1738 0.5022421127972687 2.171222978979448 3.0635571682818847
1379 -2.9346380120060136 -0.23595202723170328 -2.9082884849618584
1344 3.8441727203227654 0.31545148000104023 1.693353250220741
1742 3.0868244637482776 0.1834824929210556 3.08329586264005
1383 1.463527819718105 1.0061143692949057 0.3513557218788258
1781 0.23717031294687427 1.7233939732978152 -0.712491549944629
1348 -3.9277242655727482 2.4148425474455433 1.3356068169639421
1746 1.2109754909381285 -1.2993185275563193 -6.374056161740683
1387 3.24894856837465 0.05395510337933342 2.427945593569092
1785 -0.5628178203204928 2.1293287676150947 -3.1361768720752945
1352 2.2167600354139987 0.15567382043377115 -3.7493113568383127
1750 -2.2057531978336504 -1.0523591018037013 4.0368423961126485
1391 -1.8659996946769202 3.5263151039967706 -0.789460183015501
1789 -4.120514955044047 -0.3515564188032335 2.0333255260850804
1356 -1.455917879524105 -6.358247132696355 -2.8245170610958423
1754 1.6535496982283213 3.563195604793944 2.6695839885493724
1395 -3.930743560865598 0.5985783041148617 8.54416913416684
1793 1.2656836671594405 -3.211763719309471 2.101419372508215
1360 4.779737093328483 0.22366165613695965 3.020308893678516
1758 -1.8531257935813659 1.4588432267318134 0.7407901739327126
1399 2.109091278092293 -1.127345147726011 -3.058240530055281
1797 -4.429773566455781 1.3892212750691082 2.2602660056136847
1364 -4.00699428776925 1.6541890397695844 0.24403295963578953
1762 -2.620209954342886 1.6185489450431496 4.973080873315997
1403 -1.7256402030842877 -0.5099559283213582 -3.7437635336099846
1404 3.792343807485457 4.939126789250958 1.8372368550439668
1801 1.1783692895978122 0.2537852296708729 2.1943997900628474
1802 -0.5910882041669113 0.16703124053062615 -2.2214626562679345
1368 0.05854696636714777 5.313750430835714 -0.8268841355028929
1408 2.6764089606903214 -1.8351783790883909 2.013410975561774
1805 0.2923869623791409 1.5506771755514623 3.386392241744974
1766 -0.6580686181398917 -1.0788878001876643 -0.7263094053677414
1407 4.339345695271507 -0.1053825261359791 0.1654836330317838
1806 -2.873779615151634 -4.9055543366451495 1.8331100553107593
1372 0.7399741403122123 -6.733543567938466 -4.293504666301264
1412 -1.0939843892855075 -0.8206710175393153 1.7584004260686235
1809 -0.6992871057185076 -2.7072499647255768 5.9909143120100365
1770 5.5810207058910155 -2.9110189114096934 1.4637560451994536
1411 4.3705614996830535 2.7271077263751433 3.305356596458974
1810 0.00491621093260907 -2.0807199962104415 -1.307032254775007
1376 -1.3619562411606478 -1.3605343769485867 -4.489229241122163
1416 -0.5447855050780209 0.5031395778527884 1.7130148860448633
1813 5.349163818910739 4.462752703103215 1.0765276662737016
1774 1.049690362833081 3.7212841365603153 1.2819084484276995
1415 1.964639768154402 -0.9339824706814361 2.521526066393812
1814 3.111515956412696 1.8615123565694538 1.0073442291793238
1380 -3.627668818317985 3.6007177092162665 -1.0788332070959585
1420 1.330449565849511 -4.922631078813921 -5.147860580570602
1817 0.6467211561210343 2.796826872718309 4.591915150054885
1778 1.6432983902105718 -5.349181502182543 -2.0752119556982387
1419 0.9737608589463373 4.50872387647922 -2.5549490554461745
1818 -3.83171776626036 -3.4347445802719623 -0.9831951239527265
1384 1.8196094383884027 3.217486627609987 0.15624786032189822
1782 -1.1652626610413488 -1.075846804397238 1.039953622018718
1423 0.9146550209201565 -1.6483492381094664 -0.6181512270414913
1424 -3.2495988241897127 4.669018612756303 1.3454017355391612
1821 -3.0228684372138033 1.9511548244750458 3.2267378168809806
1822 3.085863687083223 0.9775415977052603 -4.060659272128245
1388 -3.0679895284065113 -1.4899829590647118 -3.4166391278970267
1786 -2.0147595517522814 2.604724081027716 4.09851467686877
1427 0.5884173864666704 1.3296808657319374 -0.1289394902165791
1428 0.6647510191630758 -4.635057840815441 1.3812881179702892
1825 -5.164370728099621 -3.567784285902847 3.325990963227084
1826 -2.7265495512359723 -1.533406100447439 -2.032626547372587
1392 -3.6787091008873234 -0.6051902700575055 3.7955724836524802
1790 -4.031114652012785 1.793781796426559 -0.8320081571429376
1431 2.159068111412964 -4.044007036091245 -0.18871287060466044
1432 -2.85530472794574 1.3910531106752286 6.119569625906357
1829 -0.3169893178491806 2.462128418348896 -1.5183790238289592
1830 1.4672157951744624 0.6127519852144178 1.247145952787564
1396 1.5982740676050677 -2.1957822370516666 -0.4835710477470053
1794 -2.2094053115337897 2.676601720676611 0.396694896927167
1435 3.622459208552403 3.2037459238923964 -4.598613664621922
1436 -1.5552203128315436 -2.4350086357503886 0.8775899774719291
1833 -0.9578704491262954 2.706744105577681 -3.1007363835275674
1834 0.5579465851733958 -1.7685011411009524 3.7949294099994613
1400 1.797663325508345 -0.4093521797743056 -0.07001015195275036
1798 -2.019427778997497 -2.5999645972495764 3.348381127802621
1439 1.4479965200881 -0.004524267558903808 5.136531420619406
1440 0.4158373621964994 1.6806108066555325 2.231416916900706
1837 -1.1361043048919408 -0.7110382520599522 0.3678680367140311
1838 0.3641190579947976 0.8242824496262703 -0.07161442908709163
1443 -0.455644834780215 4.591257562812471 2.8911532338864334
1444 -3.743847676616037 1.119029722198024 4.84777544982149
1841 -2.473618057434772 -5.254831400622971 4.132740488459186
1842 2.5851817155832326 -2.0990246555458807 -3.6957919086316133
1448 -1.7170238390781818 1.50917774938137 -0.2905161189960334
1845 -1.8051807910895543 3.3831239266442252 -0.039212479885509986
1447 2.080905954557589 -6.093516875614672 2.7298897904095996
1846 1.4408507224238716 -2.948251553313326 -2.8573516643445256
1452 1.3627487029401049 -1.6095426981013559 0.8740846679731047
1849 1.2619341473503023 2.299713004370705 1.0572697260311146
1451 0.5678195924093096 -0.7114892262909368 2.1264191845255724
1850 5.264583460054245 -2.7491209126519807 -0.9915294149662104
1456 -2.721625387808764 0.4350547634568712 2.629110485148153
1853 3.0794060062530795 3.2295403219290915 2.997355200868055
1455 -2.9689446435865463 0.4761147907360266 2.398498782952548
1854 3.5434217265374612 0.9575054837304539 4.549941696381057
1460 0.3334599655518602 0.3638280773316627 -0.5677123076838024
1857 0.39949329444499077 3.7276299411222946 1.0990735148468522
1459 1.3563852842852597 1.5911987226430557 0.01739963877231196
1858 -0.5370762480050428 7.316027507095171 -2.2342380414192733
1463 -2.1286477765861966 -5.120130905154103 -3.64694241800942
1464 -4.681180865318074 -6.634850282271326 6.3228381650119445
1861 2.01904254799243 -2.1604633571019285 0.4269963964563465
1862 1.3877049377178288 6.637136706359647 -2.662660593506724
1467 -2.578585210606181 -0.6868978921939916 0.4599467077320054
1468 2.1533790926258987 1.1277071345945326 0.578552635763399
1865 2.2388473636213346 1.3038557047352988 -0.05274841447474003
1866 -2.3138084458340016 -0.2814483749289625 1.5013413831752744
1471 1.8840751818624628 0.1801973789021427 -4.063579415841857
1472 6.077324228616865 3.295246666704492 -1.4081182899980307
1869 -2.5071618377205276 1.6226384882478198 0.022451437085594276
1870 -1.016821492318984 -0.44985454559282706 1.5926669970330725
1475 -3.14287657646127 -0.1571060381201349 7.029498961373458
1476 -1.0724603713792582 0.9486686947621873 -1.088450260288118
1873 5.00113800020123 -3.7113768196490335 0.20511160659099786
1874 0.9174981438862608 -1.67230065701874 -1.9328044257982029
1479 4.4000003679151805 2.3846220510909157 1.123600500869491
1480 -1.3759116610277122 -1.214291264537041 3.712371601615232
1877 5.249342532203924 -2.445730845469014 -0.11657726741422614
1878 1.0668320679049919 -0.7442658283219087 -1.5806893281010028
1483 0.8138580412167997 5.471954413999257 -1.8144071547503526
1484 0.41119710727740333 -7.930140576385414 -2.645365744487696
1881 -2.7559907566814745 -2.3622576837412255 2.212695141211435
1882 1.7924538343690908 2.2682702013742677 2.0225103920741763
1488 4.804622382734584 -3.126715504722168 2.4456842828069454
1885 1.1102000298834762 -0.045453731434414106 -1.0418267773357937
1487 -1.9093134161906333 2.2903649933754555 1.0298141690750815
1886 -6.080969304952271 2.5913496924783788 -0.23288865087582994
1492 -0.7494663456737236 -3.386810209386796 2.787125198192105
1889 3.1991156311538003 -2.007417867676796 0.21077661836762107
1491 3.1160174263160823 -1.5576324691254293 -3.79074298633192
1890 -1.0602127595188777 0.4885427780080564 0.619060770746981
1496 -3.014659615711394 0.3771269057549656 3.657316765505155
1893 1.8474487921742766 3.618596246516327 2.992599589534683
1495 1.2293070364355068 -0.9657436375481979 -0.06120587744970275
1894 0.6412533169865502 -0.591457096796828 -4.949934063280043
1500 0.44326754583521794 3.2464109549293823 4.323339856829263
1897 2.2169015698273875 2.1778293385916174 -0.20948790530105882
1499 -4.915210068495482 -2.7828043598054744 -2.4488856268783503
1898 -1.1830346821519189 0.21512672485210893 0.6179798187006954
1503 -2.828165456474602 -2.501396631366537 -0.3922575602533737
1504 1.0338112112778213 -2.7815599624380614 0.7454226529806621
1901 0.08904036494080121 2.169536543174571 0.10562869335370854
1902 1.4853673188837067 -1.2280187024301057 3.0923619600565226
1507 3.111835791054145 0.6223081085019619 -4.94198780451045
1508 -0.09346731492858706 -1.694967170816645 2.8805484253088904
1905 -1.1103422585591742 -1.7770274072222845 -2.3467337657122953
1906 1.8215717210546416 1.2923457372193894 0.5722513751864331
1511 -2.036641156613089 2.758954666706846 1.8722534241380904
1512 3.7608301787733187 -3.35747942030765 -1.4947198153563772
1909 3.3768706843666156 3.579578651196136 3.5849487400246742
1910 -0.30606460578039524 -5.325739963834653 -0.895027699906428
1515 -3.7588094590650036 3.2180971388149637 2.359852636343715
1516 0.7781811288300876 -0.81838755550674 -1.2859681364776225
1913 1.2335799402654526 -2.032233116455082 -0.1779370915775108
1914 -0.36157662903787596 -4.13257116285398 0.7837546751060648
1519 2.323561745471514 2.683978168001822 -1.5352335664761556
1520 -1.2218536853097282 1.1899143029898847 0.028689327844817945
1917 4.5102090612377275 3.824862794184458 -6.033858135667242
1918 -0.3943734186693439 5.858246564335654 1.055170671814676
1523 -6.623993274484605 1.1232106151941856 -0.23652613891827334
1524 -4.520261159157003 1.5807719854614846 -2.9393143510439614
1921 -0.6966801258090715 1.3110678557966822 4.847158586211943
1922 -1.907468774266383 -3.8078041438133625 1.142025189140034
1528 1.1426165693641837 -1.7646665737942435 -5.008498543955654
1925 1.007202935119198 2.461277118099843 1.5752427227922938
1527 4.085098794595896 -2.265935354468145 -1.9564772948409064
1926 -1.2646316722159252 -4.112026710239667 -5.076509627555222
1532 -0.02134925177791837 -1.6882468657848062 0.5983802680384344
1929 -0.9922147372375761 0.1715407546371161 -1.6022980143381504
1531 -3.281963711108296 0.9538440366584027 0.2049597549696778
1930 0.9657486533291958 -0.6528807188726419 0.45027474735881806
1536 0.03736393826481984 1.661927624424676 -1.5580492464274214
1933 -1.3271174595842723 0.056395417519711596 1.2550176649450326
1535 -0.9270908820842638 -0.20072436381842626 -0.9783405970923335
1934 -0.9239642004550058 -3.1068939574151258 3.8789968828823773
1540 -2.0375045073444342 2.9237522223361547 -2.70518708886887
1937 -1.8274880452941953 7.360131780408472 -2.800794360094336
1539 -2.297569203133773 7.053597655469303 2.7092973707782044
1938 -1.3539186390265239 0.4698025650847078 -3.691336053000931
1543 2.4322393034979677 -3.4196315123635146 2.8179229343640877
1544 -2.3207939275014198 -1.7611329501044977 1.212075505673397
1941 5.161868355300476 -1.0891053794743302 -0.015145999203274068
1942 -1.1147028687753613 -4.147926203196983 -3.395672655075477
1547 0.8000234455467434 0.3943561595011944 -0.9588849687516597
1548 0.6662264801837376 0.35226900768376807 -0.8341274655111556
1945 3.9882055055723042 3.1370222625965773 -2.1192332860659135
1946 4.686339193284311 -0.21110364218656807 0.45149156284459724
1551 4.580479874684587 3.313992913766054 -4.508079959194006
1552 -0.8487276736365461 5.199235619621269 1.6421569795001827
1949 -3.512516127241462 2.820960312639053 -3.0765476235943447
1950 2.16293318881678 4.686993111355877 3.8425580271851496
1555 0.8116656200845719 -0.510747594632343 2.428011809626344
1556 -4.816663194068147 3.2190335991375187 -3.2045223893405446
1953 0.8958796576880167 4.059790137924907 -4.2579869214035515
1954 2.85273770286455 1.1642986378182916 1.0606052473306844
1559 -0.23228950130401688 2.236414641992757 -0.8383890579085566
1560 3.950518650337717 -3.9593471036473304 0.688424169447218
1957 3.0069431477081063 2.6048111598812307 -2.1182981988449936
1958 1.9599866130207484 -2.5144836995375948 2.6832928544567536
1563 4.141941455357272 0.6503243111075193 -3.9365189999315535
1564 -2.4885557155880704 0.016124933043109635 -0.535614230525077
1961 1.5905020085727688 -2.254486694114213 -2.194353856537552
1962 3.3195358066098875 0.249149867386246 -1.4519067315134684
1568 1.0843963878559497 -1.3620115966347046 1.7944088673936778
1965 1.1024199978621132 -4.471989455207239 2.9505711111618367
1567 -4.6901123105091544 0.2814307988883716 -2.62749001489682
1966 -3.2675878021147264 -0.14340694128486361 1.8912095115684657
1572 0.21778632879137483 -0.9549110586358673 -0.5487056542389649
1969 -2.7409448648713055 -2.492887598359954 -1.6063773680996767
1571 -3.6273294410973955 -3.936502758183817 -0.5638478451153411
1970 -3.969764056120732 -0.17596183043330782 -0.5680070135525268
1576 -0.8095019930468031 0.4105337364963757 -1.3831733001365303
1973 -1.1841435073271738 1.2569851513808945 -1.2377490694492148
1575 -0.5099546736911931 2.48937781453972 -3.346923272654711
1974 1.8957924660140304 0.3808578987403321 -0.21369907023205206
1580 -1.123176777203917 5.0697676647996435 -1.1280723087953417
1977 -0.2786783636293714 -3.3763383464599537 0.3334146443236489
1579 0.2842430731514159 -5.058033195572534 -4.046155992445678
1978 -2.19073206068711 5.200967460706139 2.286432024121779
1583 0.7628079526230515 2.2330031292918058 -0.3465351532134549
1584 0.220542908737324 -5.176089973477316 -3.244792613320536
1981 0.4030182360746374 4.010342407425069 -1.5600939412143162
1982 -1.955322158466202 -0.9884449786396978 3.77696876301658
1587 -2.498734320431267 -0.7208791745077797 -2.2126258313106684
1588 -7.455894548505427 4.053176670597177 2.8104443889034854
1985 -1.2367389904295778 -5.388287721880673 -2.896672129223454
1986 3.190538134140213 1.26802599516366 -1.869588533303694
1591 -4.637995967930391 -0.8521197723331491 -0.5578001322705779
1592 1.5919168065325953 4.015140841031844 -1.9947617663129065
1989 -4.180166936623735 -0.3070478255200101 -3.1635254227311522
1990 1.559369010802097 -1.0525238579078882 5.870719419649897
1595 2.952622714834984 3.724041617609899 0.3001464963371971
1596 0.38049897902054164 -5.844109983729971 1.583128993615506
1993 4.3873904391156415 0.636948128933814 3.6512759378895696
1994 0.8653425006399764 2.9784619939429957 0.7790533010494421
1599 -3.266860195707584 -1.034177563694964 0.1709527608133682
1600 4.9165709499377686 -0.41160276430890747 3.1168365582088464
1997 -0.4036033638623988 -0.3132965712219488 1.0901296142230248
1998 0.7189224832577349 0.9226272952145156 -0.7187364412737949
1603 -2.345098193107711 2.381692877761768 3.5135662407125237
1604 -1.271632153964754 0.3555687812605362 -3.9562636007822234
2001 -1.4859193931125172 -0.5685375017319025 4.982311672901145
2002 3.8131988573884077 2.734558800131726 -7.319734405143757
2003 0.9150673091947871 -2.270234941557863 -1.2115347647142023
2004 1.2148054485412867 -0.446133911933383 -6.852099012833266
1643 -0.19321335734838666 0.9688135314459844 -1.1571468587258713
2041 -3.4755656155122563 -3.8745666384721926 1.212418184450736
2043 -2.2837083859426155 4.405180332132476 1.6172240895952315
1608 6.167564287755261 -1.16079729502726 -1.386928229652941
2005 -1.302302555888884 -3.556990235916638 0.9023281458183798
2008 1.6121488243627493 0.7982667349293829 -5.2135997661917
2045 -3.4410333367333155 1.1353265222576323 -0.3081060126938983
1607 2.0172102182724205 -0.41542477467548156 1.3710431390356959
2006 0.5255381825964499 -2.4939391030061406 0.47652263356811886
2007 -2.099698448684345 1.325227695374192 -3.1626015675319312
1647 3.2172203687267236 1.2787983243383658 -2.8741934394236446
2047 2.1324547083974585 0.8216348856610005 -4.679715768831736
1612 -0.3733016109312797 1.0657180985042864 1.6414120924727313
2009 -2.909894935769949 0.05727204288042694 0.7473039903572645
2012 1.9709518342807673 0.5453041879473074 -0.8384006441677306
2049 6.847600981720842 1.3049962518804918 -0.9642381215417988
1611 8.430231920722932 2.1030749081044164 -2.5225603350061876
2010 3.6606668944910945 5.412350132801013 -5.010248891909138
2011 2.4145745759156436 -2.4083470575187773 -1.9543712451335202
1651 0.2614287073681931 0.9862924639333974 -0.6504704799525758
2051 0.8127869280006996 3.6507743534663812 0.9821836354385624
1616 -0.2916422484398439 2.2199615905313803 0.09245736679228825
2013 -2.576312185951394 -2.6251256170723276 -1.7463678379326115
2016 -0.5675888531584665 1.3268535834133623 0.2193684568634845
2053 -4.564822576066449 0.3507198191670817 -0.37031474848023327
1615 5.190755716809915 1.5830806485877387 0.1954662433568519
2014 3.370614398044607 -2.4730250520638815 1.9383221676112659
2015 -0.6871863489232757 1.7432668360257717 -0.5470747880006377
1655 0.5106424364898218 1.8961271946005152 -0.34863695474959705
2055 2.524056826143398 -3.096529441815262 1.85125303876056
1620 0.5299605399059707 0.3299062329569201 -5.193111933398438
2017 3.279320083515316 3.8736974108897044 1.7873755312887183
2020 0.4040418015679943 -2.0535632194600786 2.979926306292642
2057 -2.5952287966294123 0.31928385493214884 -3.9584509343932868
1619 -3.1841753297569895 1.0749794103424843 -4.107101135412654
2018 1.9834932301454051 5.50717879420417 0.2534532387055071
2019 1.0205525075745783 -0.6682623940502641 1.1320767850349236
1659 -1.7556589923259607 1.7721388684322823 -0.8242362323724605
2059 -7.351900348831697 5.2147728253140855 -1.9253734193292378
1623 3.8576053685185254 1.0609252488117853 -2.6168143006300713
1624 0.9342478810034642 -0.1530383258218124 2.7263805395771663
2021 -2.6878927973083475 1.8785341299362115 -0.50173138941239
2022 5.64877389415028 0.8003247491801493 2.6660908258530904
2023 -0.24379320526365922 -3.574777270657169 1.729417025732559
2024 -1.4221324968167364 -0.9850914441093848 -0.42786905733957187
1663 -0.9056457719490997 2.7026137211544987 3.7910768863511874
2061 -2.771475843431805 0.10860398902982066 3.9660844379785427
2063 -2.466610182943313 0.028423815507212638 0.5467671360128986
1627 1.0771712263578144 4.720837794662234 0.7430443656326229
1628 -2.1358315013320888 6.344234845155064 -0.8996980230369831
2025 -2.997961800307514 1.936046086503261 0.9193229267718206
2026 3.9737297848766167 3.51533544877026 0.58107183137905
2027 -1.8951536877069364 -0.02277126904576938 -2.503088712547041
2028 -2.2464089064469803 0.002381105743462801 1.0920299873799446
1667 1.9643751040276782 -3.550912962604325 -0.9438797716576477
2065 0.3820448681113099 2.8833600148289635 -0.06843761684051544
2067 0.6914505188489575 -0.3136449674136763 6.6318758842141445
1631 -2.268962997164216 1.1257540749420922 1.3411991363231384
1632 1.3498425879395681 -3.6036701685517443 0.1634498493672261
2029 1.1536527366877494 -0.9721706226854073 -0.4178864583538228
2030 3.0685563557228983 -2.840275763936398 -4.661113613069823
2031 -5.442333900381336 -2.286906060543215 -3.217133059841809
2032 -3.2833679805740004 -0.7598324864130117 -0.3113741111208374
1671 6.899777623206261 2.3174736559998905 -1.9511295404298317
2069 -4.445467690046253 3.959170959491459 2.260752195426142
2071 1.2248561395339554 -0.18871914209020135 4.265991145983212
1635 0.051914306182487685 1.9414814769386575 0.20768034538627564
1636 -0.1483555490999998 2.3888923534017543 -1.4365041332413127
2033 0.35909993832364273 1.296720080175975 -1.3732614417131361
2034 1.2063910767514254 -3.0225402145311575 -1.2753001845512235
2035 0.5266461876046682 2.2676610211383474 -0.6297292039842441
2036 -4.020367781936306 -3.325387849995397 -2.1789111939758596
1675 -2.9657981972679996 3.2606988286405314 -1.3121282734951507
2073 1.1234660949602886 1.1197365895744096 -4.2252420837845035
2075 0.47154487521393973 0.1163113341059319 6.32937362977595
1639 -2.7156895599668074 -1.1786206394161376 -3.090506969824784
1640 0.8431085692060103 -1.8461152610505511 2.3266475022570132
2037 -0.525861594843815 -3.8410901722265876 -0.5004044301561864
2038 -0.6026336498279516 -1.1671492206449312 0.41485706758826435
2039 1.6590962723321365 7.001221058082648 1.0697513658028885
2040 0.9209253709402173 4.45718423213189 -2.7932932801302086
1679 -3.7990251834714757 -1.442292634984266 -0.948315133851702
2077 -4.953614870963235 1.8897185790203894 -0.06907724806932176
2079 0.12073775172743317 1.8099429105635814 2.1559722194053648
1644 0.4743367865699139 -3.42135820505099 3.1927118913788495
2042 0.3700284283022974 -2.1319683839189136 -2.867712495202842
2044 -2.4864632655181955 -2.177435596360304 -3.4118584824760476
1683 -3.308881168292277 0.3469088011087777 -5.622386049491424
2081 0.6619228853697563 1.7264934543652122 4.048734308404365
2083 1.1343221844465954 1.6737028942551548 -3.341448084688364
1648 -1.7385117522862765 -1.4415332709090336 6.45633123668404
2048 -2.240830128882605 0.5056747122958328 1.9182239538030093
2085 2.258691742139385 -2.032072228264841 0.12036332568778205
2046 0.6603253847961191 1.817602441264849 -4.82246978926598
1687 0.9625342530944794 -1.0951799101747985 -0.4456046344541638
2087 -0.8002173937972012 0.9614646770414323 2.063124563394387
1652 2.4999615880426145 6.045350561007561 -0.5311884069289486
2052 2.5470412191809744 0.33026787122953977 -4.960692483170101
2089 0.16777229236877853 3.487813857055699 -1.7618532958259119
2050 -1.6394368236632726 -1.0116593858369562 -1.739474560407059
1691 1.7884546596382946 -0.07128004661995983 -0.40408665718296916
2091 -2.517444993185469 -3.3450386679840376 -1.4674939305890606
1656 -1.4379911274831705 2.4001952290060697 0.3927900513072016
2056 0.7074677905548257 2.205601728676126 -4.129540232917545
2093 4.30313637916591 4.533131754058646 0.6695518476677523
2054 2.0487425127355885 -0.056877892454939766 1.1367481366867376
1695 0.6431242622658729 3.3958826304344614 2.162313545558486
2095 -1.4162194919705848 0.521622337261445 -1.4414272841196893
1660 2.9124549246878937 -4.373269891035553 2.5080048202490683
2060 -1.0613789052110265 1.73367485173616 1.2731774802163347
2097 -1.3766153597708355 2.687505912393463 -1.3187815836889456
2058 -2.491114426458166 -2.1044352850243695 1.7958887440397564
1699 -0.803812110918579 -2.977399405537712 3.1194207455047973
2099 -1.8563443225127112 2.655452823260601 1.3418056112197543
1664 4.035348687210367 -1.207693614422078 -1.0046101466616357
2062 3.4978901865802365 -2.0553558019895664 -7.429899919425714
2064 6.654575878605165 -1.3239897485433407 2.1676261972214124
1703 0.9012061808110968 -0.9435798912226203 -3.318143597052498
2101 -3.804031421477713 2.004083158379199 -1.405806880968775
2103 -0.9712559897067911 1.5834106146731524 -3.101101874207219
1668 -4.080635503240946 0.30220130821022867 -1.6182817857848517
2066 2.9211388307605124 0.8984981950599568 -0.07337903690978571
2068 0.5277823484313224 0.8360425336891134 0.09598544535967107
1707 3.328686639497351 -5.006340348227986 -3.9537819437681696
2105 3.8796572703834338 -0.3192908624005525 1.1817170648839102
2107 5.32107019000672 -0.36202931056210597 -1.3293399601395979
1672 -3.0275121325973187 -8.860435696754035 -0.7968267905706329
2070 -0.7271423066080522 4.094444337077516 1.0785856405069552
2072 2.7420556348014697 1.3676100790469528 1.2598993364120208
1711 0.7843825345638094 -1.5199565410278377 -4.042085381474589
2109 0.4151141362097419 2.162526047585531 0.004322343371387122
2111 -2.3381788492692506 -4.719905398096161 6.267641695988143
1676 1.2780846922227214 -1.9178891128043318 0.013624542847945353
2074 -0.8006889927931438 -0.4169988028668104 -1.0832669556101702
2076 -0.4692918055113779 0.27026510981712665 -2.6932621668489234
1715 3.928300653733329 -0.3013268804839915 0.1997669781496542
2113 -1.944037340650866 -1.3481755637255977 2.9852695727251315
2115 -1.825060215667899 2.971793665686356 -2.8839976098403746
1680 4.0690197349722625 -4.034730490285041 4.218290209235894
2078 0.6983985068755998 -2.9782497456907717 1.590695009757432
2080 1.6351396541767316 2.5517038818736117 2.6563007108978347
1719 1.0546261796105838 -3.154133416535717 0.6857077200849174
2117 3.625198578559568 0.36740213348255013 2.378869477743017
2119 -4.03313432473433 -3.5495141045148437 -2.660322085274434
1684 -0.07730167970289349 0.351028935513642 1.2208035856441508
2082 -1.1634114291334197 -0.736088465579519 0.3392367712803542
2084 0.27480806755524256 1.8229368557774288 1.5625321293609036
1723 -3.44141785044615 0.3648487782938784 2.0533212773007636
2121 -1.6173959910371647 -1.5554798135388335 0.6469035091793728
2123 -1.848779899537529 2.6778903490437522 -0.021420720470561042
1688 2.688441252645153 1.7080771599971623 -5.340757515381366
2088 -2.8769225769163613 1.6373112541774755 1.4748150543239609
2125 6.8478419354641415 0.5581400359744328 2.1087738554585855
2086 -0.8303454760712506 1.5414736215543685 1.3822697590798714
1727 3.4091740166908684 -0.7588638004253796 -5.331065098926061
2127 3.7719585412940906 -2.6053811913425142 -3.970840506421928
1692 1.9672554552640222 0.18049363065329435 0.5209699340334576
2092 -1.1760345663202938 0.1267769003381394 -0.50020797741765
2129 -3.9845674037274414 -2.9886829654330818 2.163734603232361
2090 1.804609129029541 0.0332129536307073 -0.880564749837412
1731 -7.014866115323921 -3.213572956275257 1.9546565037349286
2131 0.02104884048683866 -1.3757361539106931 -0.890835218866782
1696 3.317765059792303 -1.8271501300047384 -1.0134443077162973
2096 -2.9129408883495773 1.2263663332169863 4.100307830859166
2133 -3.6227731358951933 2.6698991576710176 -2.2257938706458202
2094 -1.89226906851838 -0.7947929818313306 4.505305424395489
1735 -1.0497143825509427 0.1957773622759863 0.6921822861080945
2135 2.4537151740927743 3.8463104735622067 0.9531630871235082
1700 4.406186244986955 1.3340563879901537 1.155723955200035
2100 -1.010945620454438 0.5648495052638478 0.8777457116176677
2137 3.0687399617938054 3.408374843320749 -3.177459847363475
2098 -5.023593173910126 -1.2992940741676209 2.0324570699718723
1739 -5.290571365879062 1.2602623840006075 1.234900136615568
2139 -0.719591884812942 0.957070211925484 0.8708637847801034
1704 1.9837437206201132 -0.5924185743356669 -0.8031864415058387
2102 0.029419203558833523 1.330312536814341 -3.8486641843169083
2104 2.1978492367196916 2.140569523290524 1.95525817022708
1743 -0.1952071708320609 0.8117636616523359 -0.7709955117017072
2141 0.6561683328925827 3.75526892267393 -7.14421286656704
2143 1.9972963814839595 -0.44650912243509705 -0.03908129003772159
1708 -2.625108638410713 -3.4980059060609694 2.226473173202576
2106 1.2924089807296553 -1.08323657806892 -2.004546266570532
2108 2.3503133698334415 -3.496969833673199 -1.5285647692385922
1747 4.418081624993762 -1.8296815412072962 5.990003871666179
2145 0.32287082150338514 2.5772602114577485 4.941296354372987
2147 4.869796089849429 -0.5597399284792983 4.344999859067826
1712 0.6561713148261944 -4.2756788482302435 -0.9897945337398054
2110 1.6506780498687574 -4.34640828655264 0.3831217351791744
2112 -2.640327735281513 -2.6301227289174185 -1.1423203507647774
1751 5.084434780302055 2.9442450776904607 0.17471094998751827
2149 3.121440647639899 -2.3199807595330877 4.215503791353676
2151 -2.623239048155598 0.9889363155777777 -0.30009577479275684
1716 3.095349890203974 1.386888020161142 -1.599095609137166
2114 0.10155074362915197 -4.553229624611436 -3.937021617269832
2116 -0.2569406490711852 2.475764099497861 -0.5242286678398835
1755 -0.9820574268086647 0.9794249375956721 0.27957081125054034
2153 -3.8542940890573014 -0.7117554858880678 -1.0016682547052749
2155 1.9379474525392997 -4.002733302836441 -3.9606451780545986
1720 5.109554503961555 5.22301673885321 -3.9096217439443492
2118 0.1628352014968949 -3.0763166302016622 4.607036385429166
2120 3.348002980443393 -1.803960038792733 1.2414354703157886
1759 2.843405395307903 1.3271552281150842 -0.7332280036688396
2157 -5.851425030546024 4.926996794299511 0.7221713064096204
2159 3.379630005431876 -0.6942691981386171 -5.1074174879930885
1724 1.487726457654735 1.61900917146454 1.3034753994200958
2122 0.7457246832143917 4.3094204437306844 -1.6742805603664348
2124 1.4411568197667954 3.281024705301982 -1.4130273605796522
1763 -0.17284655220827944 0.5625374956593915 0.9598760986524093
2161 -1.985509632769726 3.583199842003451 5.345110348361337
2163 2.905035300083321 1.8539321864017164 3.0439913718458804
1728 -0.08107444573528157 -2.7994670953079885 -5.782030142208768
2128 2.618749902750681 2.045070891880986 -1.5151535149706896
2165 4.143996868396133 1.12844058850614 -1.0745639134664264
2126 1.2920358597533654 -0.08659138348694748 -3.2900679014107794
1767 -3.709421471094605 -2.6029351848309266 -0.4428247537139132
2167 -0.05836841805771491 2.5151541748035813 2.7896341010956274
1732 -1.5461523551084047 -4.073792361366682 -0.9181315381550003
2132 -4.717915818368192 -1.5773819654403038 3.11511541979748
2169 1.481859421646669 3.3630153299453003 0.26027178460724865
2130 -6.206908616179871 -1.081973347647458 -3.653116070226353
1771 -2.6679067566794914 -4.088187191378197 3.6763632650720206
2171 1.2129903442306158 -1.752977072382562 -1.9066345578020627
1736 -7.158876026617515 1.3273088387280771 0.9490959405840302
2136 4.078181531223103 -1.6708948972247526 0.4878066214554841
2173 -0.9702521411654433 1.7484308196080554 -3.2412996609911446
2134 1.3960405413917858 -2.6194812727288257 -5.615181579198922
1775 -0.7083118416121539 -2.2214893039548747 -0.7991113339113346
2175 3.9824622635791362 6.074759004364819 -0.7236667429652154
1740 0.13098993084809507 -0.9220534724198045 3.7564839061961663
2140 1.5539533143194693 0.3906854048063904 1.2595289634001947
2177 -1.1594031512658869 -0.6345983482689728 0.7819990541000142
2138 1.6421635451901715 -2.878986317512855 1.0793673054115824
1779 -1.2556670960480574 3.8574564391524815 -2.153675746525348
2179 0.04105915865822069 5.051144415799253 -1.1690998857560582
1744 3.6071413266766124 2.0733418145544045 -1.5145976593561314
2142 -2.3302611324347473 -0.4983441498818687 -1.7079294623978936
2144 -1.2432669952966324 -2.1167359955901652 -1.394213139641301
1783 0.6048180585969442 -1.017853053646435 2.62956781518118
2181 -5.432613189172787 1.7530686403478895 1.9078251911801618
2183 5.35463505330208 3.827678076725151 -3.256036943307989
1748 -2.793670892889739 -5.091443638857859 4.046410275957469
2146 3.7756240185124565 -3.0118901442316126 3.1503849727495674
2148 -2.9157674991181994 0.9616296596044978 0.032721011887410084
1787 -2.0876786694409972 -5.501304618489551 6.468232888707911
2185 3.485720760202077 0.7562278153344653 4.014872648615373
2187 -2.4640995999644466 -1.8786189392827743 3.8232220053844213
1752 1.806973945837851 0.13610459202202566 -0.5306695602886768
2150 0.8026764690181147 5.354102306025584 1.7400023256497597
2152 -3.2779473237334 -1.8799991083297416 2.1486186989559246
1791 3.4532469843175297 -4.240749695507417 -4.648641779664695
2189 -1.32208048883951 5.519418165012051 -1.5206038001954796
2191 -0.5549593182411019 -1.1030251602924486 -4.564540935113233
1756 0.92922855347489 -0.6829347926697514 3.178969411372907
2154 -0.7717776412192849 -3.3628655563741527 -4.1577186539346975
2156 2.621028546580109 -1.7188418363346665 0.5438727440346528
1795 2.074286026468496 0.910548670754857 1.797039326741036
2193 4.909363464981378 1.9436587920576953 -1.0470463664423677
2195 1.7506281832159771 1.7261777483956169 4.887464383252624
1760 -0.814478441148441 -5.079218745990624 2.02356849246221
2158 3.029720217863028 -3.1795539634571095 -2.8535442602982557
2160 -2.5369389576954733 1.4679706138069553 -2.9386317399753823
1799 0.9669253618978498 1.9337492675384025 -2.2545630155004344
2197 -3.5647155787631224 -3.491942472812122 -1.0245638676587445
2199 -1.8861706654192845 0.051712047211562105 -1.056998418182607
1764 -2.0376192751214086 0.6512263429915536 -1.4883608231824907
2162 1.6873176316667124 -0.00810026524607847 -0.30558489256994126
2164 0.2357203819041064 2.307042625829688 0.955179733035629
1803 1.313185737747299 -0.6982093312373175 -2.6505377831374597
1804 -1.5245005608881754 -1.2182141931840194 -3.0703398178904173
2201 -4.117387339709558 -0.014143717824795751 2.944040720437031
2202 -3.2454515987153956 -1.9680866895926805 -2.3807610169840014
2203 -0.34064826772136125 3.8286757853084317 -3.2136585433312095
2204 0.6967094727842281 -3.165809458941523 4.44000849540311
1768 -0.9738532140223074 0.5004267181864598 -4.419087015101687
2168 -3.4187650936334646 -4.888866034125485 -0.26722928856376743
1808 -2.528237219089901 -1.5474728000706237 2.48503247038404
2205 3.0669701249792847 -2.2901456273667904 -1.8830047027829153
2208 -0.9214688861057123 -0.565269674934664 -4.635451499634416
2166 1.5801458704322717 1.3656918371370526 0.014067835089967817
1807 -2.422718781455322 -1.043300685853704 -0.01841523348047779
2206 -1.3848203144809934 -2.0893131015098696 -0.988990569421869
2207 1.456350986203172 2.2886056631435765 0.16660604454201056
1772 -4.181826727943583 2.8135298448333383 -2.7873846383535126
2172 2.31872287487231 -0.013690310628371522 6.807018148422516
1812 -2.559233888427427 -2.670240246048809 1.9097282958197879
2209 -0.18277328914298518 4.981837732565679 -2.1965565634419693
2212 -5.4080451674049925 1.8356391920334647 -4.515962921740345
2170 -2.189331004731299 -2.573305536374396 -1.8614154570974581
1811 2.8619868680700606 4.008780808621063 0.3629555439507292
2210 1.7912363448708861 -1.7572254655764177 0.9097213343001855
2211 -1.5255639461060646 -0.9413457613732685 2.250113750854374
1776 1.2409188151763966 -0.18347265647332908 2.6470102934580733
2176 -4.4592127524041265 -0.6479877054772817 -3.8491346176815084
1816 -0.47909574428446194 0.2652490620844548 -0.05594005229053187
2213 1.0126215214281746 -1.4816632333422441 0.2857010255793673
2216 -0.9931687995166206 1.9718650489943295 4.583252711435907
2174 0.5372917365824402 -3.3492203530798994 -1.276473361868966
1815 -1.7788769563664126 -2.9328263916242205 2.334722751268094
2214 0.02318240199467814 1.7426173919019643 1.716533319664154
2215 -3.3707424819826195 0.9498416865293616 -0.9990273250939911
1780 -1.6602580883014066 2.6817043132563634 3.5146070366023134
2180 1.4279595500572762 3.4782177376137677 -1.747702983259136
1820 3.815150753232186 -0.3563531858480807 -0.47351169259275894
2217 -5.765051236696171 3.650597777154239 0.6098471983068777
2220 -0.7079088279201345 0.48545556752474917 -5.59672959836763
2178 2.4785620018925556 0.8295427427766755 -3.4283765846412257
1819 0.6331357411812394 0.9353443821445434 -2.430334482910891
2218 2.0642752113703833 -0.652553607225497 -3.4738256082740686
2219 -3.657854714589826 -3.622257359070473 -3.3541035429629584
1784 -1.7368149936115882 5.906749764152024 -1.1557631810267377
2182 0.18586479019194926 -1.7049619134399798 -4.200705532220293
2184 3.2524824781081003 1.078524692635053 0.21455453823210907
1823 -0.8473392346484776 -1.6979554890286126 -0.5850230580496264
1824 4.849955821699427 -1.355505789704083 -2.310036314069294
2221 2.1694504704326283 0.23307536468098028 -2.6154999634992504
2222 -1.0577266466952429 3.8441945127198682 -1.263634706880438
2223 -2.7057502870681813 -3.3104608496585057 -2.863843840378502
2224 0.5666607697320966 -2.8090807535046785 1.1442555130609033
1788 -1.809121975339735 4.4185796980287355 0.18611284794213442
2186 -0.46454648575599866 5.820554474138495 -1.775663672460314
2188 -2.053147985841841 0.40055746894528943 -2.38396865380653
1827 -2.504182459806038 1.7305369806597666 -1.4484036398682054
1828 -1.916264365967528 2.550282209115232 2.8119138923787403
2225 0.721282300104945 5.123446045731308 -6.62212227181123
2226 -6.563817651820392 -0.5926220927158742 -0.4910348604022403
2227 -3.044006804605104 2.9975571687415 -1.5801960066141114
2228 -3.2988312823684267 5.5407079822863725 -1.393586376307678
1792 2.4893856614940186 3.7294517554477356 -1.4251793691495727
2190 -2.935129704866288 -1.4564200544554404 -0.5289780616440428
2192 -2.86063828707808 0.7928850701632183 -1.1704823182824824
1831 -2.250663565782653 -0.2514467920704134 -1.4597932818619284
1832 -1.3141578735261537 -3.1051752923816336 -0.15591722652055454
2229 -4.266315655528044 0.17207245133261068 -0.24769157241032072
2230 0.31446084587989787 -3.1627984309015673 2.770525076752909
2231 5.391562359494207 2.5171278084137705 1.2755470142920375
2232 -0.13940538605483782 -8.342469944663023 1.136241165992805
1796 2.929311258249598 -1.2305561916570338 -3.7494192056341116
2194 -3.854767466567252 1.0749515789926358 -3.5025824824686254
2196 -0.1830734657449908 -0.5101280361001529 -1.1624712051408976
1835 -0.39371620593737605 -4.041113509177034 2.132396554824523
1836 0.3385633131991156 -5.8326797195967615 -1.4130475423655546
2233 3.1219623115148063 -0.5143340937881081 -1.922492053302626
2234 0.3895626491231388 0.07903669519427912 -3.84603438255358
2235 3.6999396597660184 0.5172754108207057 2.0236092546477944
2236 1.3299524816899166 2.0447817317629977 4.161509785681954
1800 -2.560149859185544 2.3739384782786055 -1.1690468933010685
2198 0.9840751726460538 1.764629018732566 0.08098177103719133
2200 -3.970426926599226 4.081363669350659 0.3958777309024261
1839 -7.452696030824308 -0.2574442977890848 5.7100940002576275
1840 -1.302069302812205 -2.6862210750703133 1.5985049765475352
2237 -2.433098671643929 1.2184689908852053 4.4792154984868455
2238 -1.3854060506814283 1.6359892483065137 -0.004193506905273927
2239 -3.73567465280632 1.608191616175251 -1.6794429102470876
2240 1.0152229736122727 2.296817308886534 2.608855508124109
1843 -0.8728520732732709 -4.562173655314916 3.657148824127126
1844 -6.230798498652902 -0.3189886129710561 3.922606412145352
2241 -3.2730079868767574 1.733397262264999 -1.2914410974438368
2242 -0.04427576746826941 -0.01148222381443254 -5.369999176925546
2243 0.9312217456910287 3.315132363398459 1.4922089338085462
2244 -0.39901069203179157 4.114551099833375 -4.649362394579517
1848 1.9304496494910413 -1.9153200395541767 1.5858670422563492
2245 0.20779182785964073 5.998311814904921 2.9372687983428922
2248 2.1101808712191095 -1.1475665754481148 -0.686963881074543
1847 0.6662126953956817 -1.5012365004012438 2.900974196197702
2246 -0.830555032978724 -3.0664835557021464 2.8116379951089945
2247 2.955611823731855 1.8102505661873927 1.9053695968647588
1852 5.293279132042794 -5.614514482833771 2.8120254533641296
2249 -1.0910108773298541 -0.78649399767884 1.745809590352926
2252 -0.41527928205859266 -2.7540262153405877 -1.1444194745732632
1851 1.4955797358764105 0.21505095421387524 4.62587646796273
2250 1.1230943141799714 -0.9514693201250618 0.9699928770055243
2251 0.7045803161620968 0.07330006019149718 0.6628883412069371
1856 1.7968168276116905 0.1598391692790517 -1.11104392624292
2253 0.458032548832256 3.73729870002259 -1.2173788826855227
2256 1.0237709651470108 0.7137504446698664 0.7335763480256394
1855 -4.704853496943495 0.3607862651853647 -4.151039036765364
2254 0.6421685870710889 -1.5995329469194923 -0.10369393939792679
2255 2.408285549245333 0.6954832687007514 0.9345811901498643
1860 0.06075477880805711 -3.3493872028971223 2.0978280991154437
2257 2.219847419296715 3.532824037244935 2.1085519943676
2260 -1.2202150184186376 -6.5373614464645575 -3.1288564150703464
1859 0.0753239345043902 -2.5945477146341394 -1.8698801506666096
2258 -1.2805119600657746 -0.4096504676041659 -5.909445461316005
2259 1.271818690030923 -0.5275863855693557 -1.8787746598834718
1863 -5.725991162336642 3.0335463909592506 -1.1799490439613984
1864 -4.930516842247409 -0.6533826662466223 2.063211545862593
2261 -0.12206200153574262 3.1460024420102792 -3.9325813305370105
2262 4.986906948051998 -1.395419708201975 1.899504251780355
2263 2.459060055579722 5.291096446598698 -0.19827374548526697
2264 0.37893449608880103 -3.5753840074028647 -1.5281958194660006
1867 3.1036349541473927 0.9472900312603608 2.5141529748892233
1868 0.5435107089782953 0.12131116824177983 -2.887066655895895
2265 0.1231352321717039 3.783382219615733 -1.9559594509851594
2266 -1.563268805078524 -1.7609732472600965 0.1950026767860468
2267 -0.38022716838436277 -0.7485696942929436 -1.921307503791979
2268 -2.386288085715818 -1.7233057467377235 0.9959776943804269
1871 -2.820683743498086 -1.6700759537209473 3.172850005111038
1872 1.9251287189447375 0.04602482202043512 1.1200345532433613
2269 0.17352084711799937 -2.444634912090756 2.4143439750383657
2270 0.15863536829713726 0.9967587591085937 0.9238315140519126
2271 6.566226696510636 0.056776413059780026 -0.19967244420077163
2272 0.5349111480015925 0.26269441046561054 -0.09446774812233473
1875 -3.065073751017631 -2.789450673156163 5.882217821977637
1876 0.570474529373937 0.022160386327797533 2.2978825757601427
2273 -1.5783693113677002 4.277808936332967 1.544381099407717
2274 3.74813022910307 1.3519392199803586 -3.2858274716130844
2275 1.321976724668542 0.5594717775599756 3.756763524991392
2276 6.83413189379191 -1.3879687326566497 -3.149693460699676
1879 0.08321743119903648 0.48942530524409755 -4.790309865928634
1880 3.2931927589793384 -2.1760868871197774 -0.049108073578547774
2277 -0.4401073407340338 1.771442136580761 0.40254215641746205
2278 -2.2991344594050136 -1.0968541881979619 -2.57198861202829
2279 -2.166714534611536 0.17169458816385297 -2.098275533073399
2280 0.41433118108211525 1.7460308725442693 4.871357000671983
1883 -1.4669350064898588 -0.06286905303984183 2.7789334708912152
1884 -4.380934011265427 -1.2128544281801255 3.5710802842543456
2281 1.997371172469171 4.347472083448503 -2.9442635106212585
2282 -0.3157593553228805 -4.610182661520504 1.6013556083297205
2283 -0.40361239485944905 -0.2528853193252685 -3.088969284129241
2284 -1.5525999372584007 -0.44688719308903446 1.206177751625691
1888 -5.920865636954133 -1.9899134204374909 6.919720320379417
2285 2.0040509538045352 2.543970032833841 -0.36080533675689275
2288 5.233916503647504 -4.797380533613865 -0.4885891931454201
1887 -0.3212084292973811 -2.620935234584176 2.7435124831280744
2286 -2.426650113024842 -1.6774038180721846 -1.0499915860129425
2287 0.40671115378038686 -4.283013655500395 1.2230069026498558
1892 -1.9925934169360533 -2.6860405970773003 -5.677859686756387
2289 -0.5319989657274937 -1.0848097828398515 -1.245803801984727
2292 4.483128854974199 0.13653502005587667 2.56143821597866
1891 -1.053162196083767 4.683557100408475 -0.6266162257162206
2290 -2.3848625303410063 -2.3781384770414786 0.9792175687066963
2291 2.090972290337301 -2.515313056639056 4.5660400000587895
1896 -0.9066338399032238 1.1599410867943774 1.787207924102283
2293 0.6225628614858387 2.185235699828478 -3.9701265382116904
2296 2.1148684997804237 1.0190430916133815 -1.967142373379477
1895 -3.840391144541324 2.822455606038992 -5.09154843025455
2294 -1.2506807042719232 -2.703393681318785 -3.459915224996038
2295 -3.850938655269783 -1.0069565227496922 4.481806341128926
1900 4.291734218460654 -5.243494341467174 -0.8831492841347306
2297 -1.1700557468548904 0.2291580427807676 2.487892746690009
2300 0.46150626958323754 -0.6934621028788516 -1.7614146604062482
1899 -0.02525942208466567 -1.1657180174950583 -2.5919687530162143
2298 -0.8125704392337431 -0.3763658952527163 2.8655526618946046
2299 -0.429656399339002 -0.6579852157686361 -2.4599452766622423
1903 1.2611202535808648 -1.5656014483088427 1.2978093702244573
1904 0.17258632985617572 -5.810679906999872 4.084249872614611
2301 -0.8918688214945293 -0.1398702783596043 2.4946780393350947
2302 -1.1114005504923221 -0.4823258683002862 -0.8369552956145536
2303 1.7532603788947474 3.9805133857449584 -1.4484172073786845
2304 0.4234915339109571 0.6833270915421289 2.743969523670524
1907 1.2319838212116276 -0.0794100308724089 -4.328813120581417
1908 2.1969279050973434 -1.6716390909610475 2.6170706199411478
2305 2.8245295231294945 2.9279432319985736 -2.2588296161760946
2306 -2.733357940897328 4.778534985246737 -1.7730625607266555
2307 0.36685685655487155 -0.6572135550857655 -0.6802154394476034
2308 2.2536244187285432 -0.22009714397867028 1.294196871973995
1911 -2.610272036115289 -0.5073909910780483 5.938486708398081
1912 -3.0005847784797277 4.1802371266601 -1.1456833343621717
2309 -0.25438433644426073 0.3972174299808251 0.23453367912653417
2310 -0.2825073156572101 -0.5959606745360551 0.5425726263523882
2311 5.534825607354712 -3.6516149639447137 -1.0406178196394356
2312 -0.6440036878874995 2.435673495398162 2.416755184613932
1915 0.9699661132282917 -3.127734073084602 -2.955681221219272
1916 -1.2018869001077268 -3.4656083818731878 -1.7823988780048328
2313 -5.828219100436016 0.13421731957180844 2.225876007085231
2314 -6.7317361507700335 0.30671058449274036 -1.3480089791241867
2315 -6.62505276079448 -0.12146010154253835 5.899333517973675
2316 -1.2249892538880844 3.80111158044987 2.0285848307827767
1919 2.915199132422041 -1.8825456717595563 -2.474948648416722
1920 -4.18444717704945 0.12969170275638692 -2.71343163569304
2317 -0.20062387966342943 -0.36477923525947853 1.8575405983542679
2318 1.3134096040954504 0.3622975769295389 -1.8980226100848776
2319 1.3818674145771492 0.7848873133356734 2.0557775779048986
2320 -2.998989020745156 5.875014748881015 -4.37625766432734
1923 -4.998111637572321 -0.08835302967412448 0.30461786354269665
1924 0.25793617079519987 -5.529054227089276 1.9854192834242683
2321 3.2745795891240723 -0.8631501361967092 1.5094979014465093
2322 2.3263451591050344 3.0497899246654723 -0.7425196573694997
2323 2.881586475177434 2.1521893115345563 1.0849926698877943
2324 2.938790767339546 -0.8449836580259773 -0.2060859176122622
1928 -3.4319530934699496 -2.177050686828652 -3.7950196228380624
2325 -3.319866347070822 -0.06686633394347484 2.2899983728483
2328 4.619147303496611 1.9258706409213562 4.069438580431216
1927 -2.2866210227816266 -3.849439566977592 0.18275448831755037
2326 2.4325843153195543 1.1509774728666922 3.458415923181713
2327 -2.518279826413345 0.34884009199742927 0.4157066529865633
1932 1.9268924582290488 -0.3215280730450791 1.1694532759052636
2329 0.823309132461184 1.3648176808121586 0.29179306344490413
2332 -2.17298354071396 0.49861107918255576 0.6286995892170213
1931 -3.01069240583606 -1.1682409426316394 1.3077917621863908
2330 -2.5460751130343384 3.01884632200889 4.367223104505185
2331 0.659682638194618 4.757614019904688 -1.3877859829967572
1936 0.749231756989655 -1.1566327815243453 -0.1154022576275246
2333 -1.7539999644968223 1.8284232016801434 -0.23463891133334885
2336 6.009745574271362 -1.1813551960586497 -3.392770982499294
1935 0.01605304313979083 -2.6959145364549655 -1.3890415346963954
2334 -5.009443418497523 -3.848398062680024 -0.28653435195618343
2335 3.0207796221944694 -3.4257389774157985 1.8225917636140345
1940 0.8357682760472732 6.3635970095960745 1.5661954687151172
2337 4.016070645867143 -1.3358506580032072 -4.009135516045509
2340 4.9898813296054 -2.139791067313472 -2.244162688839982
1939 2.687653792589028 -0.3130000580392982 1.9589283641238724
2338 1.6129614792730158 -2.261221341671705 3.2655379719113955
2339 -5.79219019306524 -2.594465529529449 -2.1386881379290146
1943 -1.3090344249256576 1.483938085544417 -1.2049987725760918
1944 -0.7764437396106507 -2.1112863014569023 -2.365266965230214
2341 -0.8181920373307374 -2.2516696881860323 2.9979688959701547
2342 -1.7456146008820317 -0.07400393445344393 0.9295624211288365
2343 -1.3224337820060599 -4.123007263247784 -0.9490837293124774
2344 -6.505201863544285 1.210040800450884 -1.7155664494208045
1947 -1.2943957093252207 -2.824914465470159 -3.6970881795770425
1948 1.3115820688189896 -3.249819205887052 -2.0770240175966683
2345 2.495806780269199 2.493547042050741 -3.3494717028175534
2346 -3.1753763283696634 3.26942355764294 -0.31783637117558117
2347 3.298746757453602 2.3437325227775045 -3.1160809125167193
2348 -2.235094472907124 2.752062893419995 3.917065208121024
1951 4.230901584353411 -0.029065820234113627 -1.725711181516495
1952 1.317725648959965 0.3960641163759458 -1.3103199350671402
2349 1.9381321330590828 3.682405273191291 -1.718554571412296
2350 5.343043116213974 2.5003973149848275 -2.3637852202688685
2351 5.12667810795016 -5.269180863997073 -5.0431101406651235
2352 -1.8110666599129845 -2.6582934090108927 2.8569882492238468
1955 -0.8860519299395833 -2.6744372196658848 -1.2296007313257833
1956 0.15556339361589966 -0.7286414310334145 -1.6277087206567775
2353 -1.9452298220330608 2.0707473693340135 4.29195054747769
2354 2.905828054146359 -1.9265679948960421 -0.6344462332660495
2355 2.570672524078881 0.32961013026261127 1.0032675648966005
2356 -0.21848402771688097 2.2237486314975428 -1.5750856747917532
1959 2.205094472445098 -2.445625090620799 1.8826815265495194
1960 -1.9828117795278337 0.38410523290799975 -1.7129470936935038
2357 -3.7537638450386233 0.20741315062299603 0.7624644370069721
2358 5.619940749283497 0.6147793953276617 5.07392531139209
2359 -1.4027919191741622 1.0479346716253286 5.575759476061443
2360 -6.46635018531979 -1.2058117649596165 -0.6456889435138854
1963 3.186481742904532 -0.7092878964341827 0.9667750880133948
1964 -3.7669214764147236 4.410750050952275 -1.0687090523126983
2361 5.250485597704898 1.1408879096621922 3.607754457761787
2362 0.5353924401762568 -1.195400989144568 -0.5054767761482839
2363 -1.8885816612151365 0.015728618420753904 0.8281689730899925
2364 -0.6096046954399993 1.0899140413322417 1.7298589633012336
1968 1.348185329734657 3.8570823841343884 0.9751171710024893
2365 1.1750103815285355 -2.942633506960367 -0.35847293971784044
2368 -1.410311359479344 -1.4557541756187962 -2.377135133036333
1967 2.7339701070183615 2.952997474363087 -1.3930306357785358
2366 -1.9388548954916827 -1.2513203034071974 -7.436364162753121
2367 4.817972384870696 -1.322123667782423 -0.9332751875654953
1972 2.1042719117205575 1.7722246258519323 -2.5723336095540263
2369 -2.72462653245757 4.673408339241076 -0.6776467042754786
2372 -1.1366832568696508 -0.26824808112049203 2.181303836582234
1971 -0.6078756728164247 -4.453467395093619 -0.948146781332307
2370 -1.5700350152890847 0.30862241154557785 2.8120463541117373
2371 0.7468207849274404 -0.6071050690601949 -3.499699597847044
1976 2.073650244517724 1.6082791122894262 2.8421283708935463
2373 -3.895324465493906 -2.287453443198501 -0.570034636576933
2376 2.9274394137008075 0.32899845949506856 0.11482772593082555
1975 5.766724184054294 1.9050372726668228 -3.7336000874877104
2374 -0.3719640501800381 0.49671090852898586 0.22525170079758677
2375 -2.049166512301386 1.480003925229904 5.579362454028947
1980 -1.9812401326417481 5.352102360739587 0.32102545378173414
2377 -0.02268473598554992 -0.1530182237558809 4.148722659630774
2380 -1.4520722062174527 -1.8758025697248004 4.5183144950755345
1979 1.6890429945054748 -3.2523312516027025 -1.4479767551982883
2378 -3.249200283100202 -3.5268344693936857 0.10192519621013557
2379 3.5124860923420274 0.15207449567648895 -4.009270557676158
1983 4.624696672421594 -3.2319612467279955 3.5537627724001752
1984 -0.0714154056740287 1.9791064499677442 -2.486047683033331
2381 1.7458372315721034 4.622584747109126 -0.2832848638551325
2382 1.0817286288424093 3.6486637704417486 1.3188751711276137
2383 -3.045655877711572 3.7129322783074805 1.4206064925545938
2384 -0.8238242415748788 1.9544257028926948 3.5301580889496775
1987 0.7608142293138125 -4.5129049463668975 -3.5629266459794
1988 2.202523080354505 2.77953334861652 -0.23593157213546276
2385 3.9162823777745133 -2.582318878217479 1.6365263053214314
2386 -1.7883115828365588 -2.381953981339765 0.37876415817083114
2387 -1.0720750675406603 -0.17932550023097865 0.23779634007941677
2388 -1.074012750367535 4.699807653447661 -3.5960350833595243
1991 1.1988149924119407 4.674431176093966 3.3788296399077558
1992 -2.0800514442205547 3.008111000732173 1.7054669231508695
2389 -1.7790969162449648 -3.7473343097405074 -3.1178158900623454
2390 5.345534002161729 2.0203783845693746 2.75326928146343
2391 0.2796051517492881 0.8282253885064212 4.377865706029423
2392 2.744545879728051 -2.2541325274991464 1.5963092640522096
1995 -3.2404923471944906 0.014254370865779667 1.1928683955484114
1996 -8.179614874642434 -0.6462166447956607 1.819784082518024
2393 -0.4968793270383421 -0.9597881240140882 -2.487095126405488
2394 -2.21919784971892 -7.262945166846537 2.0470744745394707
2395 1.6474753622987743 3.482057219743275 1.9387266867996187
2396 0.652692250521261 -1.5824960336963259 -0.9385936224713275
1999 2.938846141026488 -4.135419339434793 3.064515857734604
2000 0.3802892257649819 2.580663236327489 1.484201478442769
2397 0.831801106351394 -1.2026341204688324 2.946963050061677
2398 -4.9192079086387235 -1.5096496521277187 0.8256351100669364
2399 4.4071922434394155 -4.942460776355877 -1.6214258747689516
2400 2.8951417169963576 -3.3786507874151415 1.8131052396711973
2401 2.2319832394121795 -0.12720612302832854 1.1321270270684736
2402 -0.2491760936131577 0.13543773122896305 3.709898222420545
2403 1.446072602979455 -0.7321752622595504 -1.1414756780588096
2404 -2.192175678445738 1.8691417189630382 3.33353865105653
2441 -2.0788558575240867 -3.0277448053744886 5.632534246614292
2443 -1.2400740569169955 2.6113329226111204 2.5501311685468666
2405 2.263972967610026 -0.3448290570800775 -2.205450039810863
2408 1.2520733845292202 1.3162037219413065 1.2437302465561606
2445 -0.005521294737194809 -1.4614597490015615 -2.207328585201674
2406 2.7662262195737597 1.5340275984903984 2.647574238822806
2407 0.029141529429497128 6.096696268640877 -0.3045922828769012
2447 -1.5514407401462151 -1.4520474124585174 2.153834072525596
2409 -1.5924207686499958 -0.19990537475679096 0.39258693992129895
2412 0.5828539780278854 -3.436498428107365 -1.346607220353166
2449 2.9902142758514723 2.370040022666067 4.504137344043605
2410 1.7151899811850113 -1.6703654082556592 -2.7627710704571022
2411 0.8296518739362672 1.85519656600862 -1.73415643948046
2451 2.085483398225978 1.4144454218856966 2.5614411700679223
2413 0.3763627222515115 1.9351762068397336 -1.1358920340419196
2416 3.57962743098173 1.1945180629076417 -0.9619452259960963
2453 1.9406956372764592 -0.05249455237012851 -2.7808921838601437
2414 -1.651429980220214 2.495794326473187 -1.305593524243357
2415 6.298373780246506 -0.7989011717886696 -1.1670347434932413
2455 -2.7200752798337935 6.229819194844602 -0.6402384452370675
2417 1.6212256441876471 -1.448084114914834 0.660256672481891
2420 0.8056741342678172 1.4924259289939874 2.671323267373251
2457 1.1725676544775798 2.5357319152816347 0.7868837524530292
2418 -0.2705310616070769 -7.079264125105011 -1.4183946972885297
2419 0.7313285119357797 -0.3677147756945786 0.6351531289501438
2459 -0.1786878696137221 -2.302586749169627 2.9157981419759773
2421 -0.4474826617889321 1.0512678499266328 -0.721742896152263
2422 -2.1585860347699377 2.9796072772361275 -3.135120267027794
2423 -0.31792768111783365 -2.5341716494877358 0.86505247829556
2424 2.874059902072043 -0.2557777100831035 2.9414132303789478
2461 -2.909489470243417 2.1247689662749245 0.43034865316047427
2463 -7.67495924759848 -0.5818755519375243 1.3219221272182904
2425 -2.7470447401827047 1.4959102086047997 0.5689881476880516
2426 -1.510662739673009 0.6776818816661655 -5.40512216358053
2427 5.94884672973085 -5.7657166290923225 0.5567682571024211
2428 0.5241891225982408 -0.3529715280327749 4.222330670032222
2465 -0.5570194319962338 3.9258277202917236 0.3913756239040048
2467 -4.605508028610006 -0.13979277673297336 -0.6942966117583246
2429 -1.1784569153929498 -2.0305109862980104 -2.9335615713482506
2430 -1.341628034726795 3.6547033595990377 -3.075029948229878
2431 3.504506763729276 2.8920618730364507 0.6637521761875407
2432 1.4822540245996407 2.022653388105856 6.412426693925524
2469 5.638737616866176 -3.154958697013639 0.585855638129862
2471 -4.7033210058307855 0.895843448541326 -0.4391305301543272
2433 -4.560831879428403 -1.0166463072406116 -0.2305581916400288
2434 4.039651064918817 0.14903174382841167 -3.792304829173251
2435 -0.6430830113776401 3.3723223072178756 -1.296028506249441
2436 4.85025470216506 -0.9790387545792253 -0.8336644554097965
2473 0.22803791886163396 -1.1603804764283985 1.9162821881993768
2475 8.423560806324248 -1.703502158511357 3.617290175846029
2437 3.298919606383292 -2.4572638800138513 5.031863010455397
2438 -1.7288891766089727 -0.7309286621850978 -2.522224984597857
2439 -0.9795318158631375 -5.311818674448878 -3.3630247141793683
2440 4.965613455101317 -1.8129778732030624 2.7416699848080697
2477 -1.8197443399186533 1.7777188797235846 -0.45709680987714746
2479 4.318222474989931 -1.8871398999146638 -1.0138103045449571
2442 -7.140791170255175 -0.4380937426137132 0.7200887194323646
2444 -0.2527190906823298 -2.5009120101609636 -2.641991235319573
2481 0.28887317853661165 2.0696658398359515 -3.563485097790511
2483 -2.5635466877858137 1.1680079377691346 1.4670982240432862
2448 3.730147686404841 1.8682985570311275 -2.306925495006346
2485 -0.031188475875899783 -1.1180503590741009 -4.08308009106107
2446 1.3458401053476239 -4.223516406056959 0.009142369059455889
2487 -0.6423369595228785 -0.44667613818655727 -1.2179962032157339
2452 -1.3374960880029865 -2.608370954122073 0.38814417537402585
2489 0.2086901158420106 0.7304167424569721 -2.821858951049758
2450 -2.7118178099578665 -5.868350544850276 3.154425373215438
2491 0.6514847742834917 -2.420914374230838 -0.5265774125598781
2456 0.12394293228989851 1.247377544487366 0.16367618273560627
2493 -1.2140668882879242 -4.439861897186174 3.5000433889379683
2454 -4.012742954259881 2.753269595787906 -0.39273662483579524
2495 -2.801161060550199 1.2958545264094632 -1.1301705081626388
2460 -1.999968117845825 -1.1173924746811574 -5.162617450625308
2497 0.5068791588989956 -0.3014314687700003 -0.9273348413653725
2458 3.3508582085034297 -2.4046762175677694 2.8171110713358645
2499 3.931912163386238 0.9368730542172339 1.3161576005090914
2462 -0.06956687553612466 3.362505595441305 0.023508311513453166
2464 3.0716573299949044 -3.4851063510964324 -1.6625699551627795
2501 -3.2614995883597184 -0.3948129397260211 -2.5470599937309006
2503 -3.7682640968184513 1.6941849528037174 -0.6063078238036694
2466 1.2765396044844604 -0.7618189154272129 -0.8046567455401916
2468 -1.573796384330795 -2.8346797015922847 -5.995015060932078
2505 -0.13146859104229489 -0.15008843883971815 -5.479220436312676
2507 -2.910682827696155 -2.896948560697412 4.966030768744763
2470 -0.8456498167503242 1.498425431030469 0.9699654221992181
2472 -2.392084396240385 -0.10363032714847088 -1.5139961697481739
2509 -1.4126266633512294 -1.0697062562276154 -5.501803916600539
2511 1.7707419974725445 2.217352908113365 2.023084223028768
2474 0.9232098501913206 6.242663294149882 -0.29793385326188293
2476 2.563612022508153 0.8427971494252804 2.417695618762866
2513 2.3165805094507896 0.4388788668503261 2.469438136691838
2515 -0.34981899280260864 1.0167263720557749 -3.1075979532763593
2478 -3.294567480610033 0.6700574675284051 -1.3008813691213577
2480 0.682934824736108 0.5317836409864286 -2.2004662843771547
2517 2.2246981778828756 1.8675900532843543 -0.3541133212510542
2519 -1.1501794082538248 -3.3633704536667595 -1.7298812490318036
2482 -2.8141776756314747 1.0107578698740094 -3.066986554651183
2484 -1.8181361005702703 -4.3270638349678965 -2.439076311172251
2521 0.6062093482022376 0.6272083497423903 0.8565726263250666
2523 -3.264551119246271 -3.1642251335754206 -0.25074371117808847
2488 -2.3163041822090253 -2.8620915250863965 0.5068671315909772
2525 1.479229327922504 -0.7964072647776156 -1.8331065164090514
2486 4.079761997153758 2.856130941329189 3.3747860877579647
2527 -3.365295970516207 -0.6197943991739586 -2.4219950853373957
2492 -1.3238071498186457 3.0182669230261805 -1.4093905589094093
2529 3.9331544520730164 0.30152963147372824 -2.494399667278259
2490 -3.998480230177582 3.3776455943502053 5.461939567809748
2531 4.787079025304335 -0.24336688133308698 2.5967422744000843
2496 -1.1499606145788772 -0.5653411922646739 -3.0911233676654337
2533 -1.5413708998192457 3.9835661388016734 -2.162361198161179
2494 2.065371649769727 4.981523816493487 -0.5483916377890843
2535 1.0322095146988748 2.7974873856196494 -0.7947999965907094
2500 -0.9870282161937186 2.3226951591479073 -1.2948138676923389
2537 3.1050589089996175 2.963807269699822 0.5373564120106246
2498 -2.8166266626165055 2.293191197454421 -0.09751204335618299
2539 -1.0525882154423465 -2.8402405194575246 -1.9893656454744093
2502 -0.8155993101145853 0.040358086622137634 -0.3800271508577567
2504 -2.536905089521912 2.2002483961608057 -3.493829567409056
2541 1.1219410855197354 0.4403476908135961 -1.8535658394446877
2543 3.836177516150371 0.5578913509593216 -0.08294920564448305
2506 4.316778903355132 3.120537842717704 4.076502210350758
2508 0.5534980946253955 -0.9953674382779678 -1.614057322161853
2545 4.851713928042766 1.8891481507976655 -2.7179801122104594
2547 -1.9211699776458453 -0.3501239606140689 -4.08819675017657
2510 -0.8054629742424793 -0.9026826837538472 -4.872480621863229
2512 0.5897985769554661 -1.0127333998553023 1.8030055847484434
2549 1.9352917690695985 -1.2005427299518046 2.4910036147226493
2551 1.4705044815986363 -1.513029452393471 -0.9880123364216927
2514 1.5747449207561206 0.9820393120365433 4.681700698539445
2516 0.14864073922875218 0.29452424615926726 1.8887842198575413
2553 -1.2315665968831175 -2.033835828609145 2.7485331886620985
2555 -1.474197185702731 -1.0474397859069702 0.5569843569651924
2518 -0.771207565889241 2.0810587844641018 3.0586802879528907
2520 -0.9284134808351729 0.6115757377204664 -0.6950018471738973
2557 -3.763316439456988 -1.1533270044221642 -0.9261344229529833
2559 0.9070309629697338 0.513733429018081 1.6064250132439213
2522 0.3797679590504817 0.582576422108366 2.2117725182223995
2524 -2.161588076329767 -1.8819591875936656 -2.2077968630681597
2561 -3.2403237327798577 -0.3108613624994592 3.5216141717296483
2563 4.536788976379084 -1.4265932215650114 -2.697766457732612
2528 3.095167191142087 -1.56854481597853 0.09459515644122693
2565 0.062251484295474876 -0.23185386302600455 0.5384922786025524
2526 -3.359215398233186 -3.2492427998344167 5.655510237720067
2567 -3.235313263961482 0.9996350191338869 3.840437109213145
2532 -0.40250248999493743 0.20193807634357808 -2.004570573092597
2569 -2.182926840930776 -0.17816173253313566 -4.02229006935531
2530 1.2762819842454547 9.455769342999679 -2.129270468034896
2571 3.1526941652848564 -0.6240477904116509 1.37685511650984
2536 -0.4171758586985306 -2.228253216913068 1.6381342439369657
2573 -2.7590597665761343 1.995650044956353 -2.441146102769627
2534 -0.7130887293770155 0.46983050958251 -0.39488729239350745
2575 -3.346033365755067 2.588539970008189 0.48674052184933464
2540 -5.150689332958737 -1.790730071111682 -1.327450518711215
2577 3.1981841769959445 2.267810702285858 -1.0574379505452152
2538 0.07249365079773874 -2.9674967428088883 0.9050290229667662
2579 -1.3133009333775123 3.3539204616076406 -1.8323812022802244
2542 -1.6878379443567264 -3.376540625339387 2.6050566005026417
2544 -0.11681846209078227 1.0116736760426173 -2.990645754060067
2581 -2.0536990476498644 1.4968416792145263 -3.7989575379093097
2583 -0.7792800611327139 2.330387463288604 6.460163401863134
2546 2.9950474255284405 3.3662435011262235 -1.6938139561878622
2548 -8.560144459374712 0.9322520168429862 3.20655481954585
2585 -1.1067373698361076 4.5284691821518885 3.1800252068850177
2587 2.60826908521135 -1.405597987269806 1.9315176137949257
2550 3.091099002150362 -3.9588543696283383 2.306453936968758
2552 -1.309393978458189 0.8840721001940643 -1.2773777129070822
2589 -3.7202002267025316 0.36462189123618566 1.8958766015530304
2591 0.7805675210064282 -3.2760307126034114 3.5008995841189385
2554 -0.05598171004526126 -1.1663641565222511 -3.0520392228197206
2556 5.227566357251941 0.8346056859902714 2.3878049532401966
2593 4.511082589281609 2.339273175068722 1.1588231084270637
2595 -0.2783405482745209 -0.8829794326087345 2.030001381594748
2558 2.5802066457860273 -4.607292344177935 -0.6215688835546682
2560 0.2930890859058112 7.77999088802682 0.8474264355127499
2597 7.267483923729596 -2.6488172994476487 0.867060876308
2599 0.7846109418567415 1.7985088787868209 6.821707528970013
2562 1.6012333276631028 1.9558993827231725 4.962167666181227
2564 3.073070666567917 1.7891121385420248 -2.4212139811226425
2601 1.2524185151062721 0.8655419385281271 2.727475886443092
2602 -2.02347030127527 -3.0071773552805636 0.6308471910593594
2603 0.5782574012587338 -0.2564610873902896 -1.8337305497626786
2604 -3.3849094228447774 1.3564587558865695 -2.126623249223945
2568 7.152383950955717 0.957534636972481 4.136572169433023
2605 -0.5412287234732057 -2.5728939273216422 4.561405818593725
2608 -3.1416003877766174 1.1978496494422337 1.4737167371488278
2566 1.2371314469392736 1.7519029568377766 -3.189665628876339
2606 -0.5400611704020052 -0.8466435786534343 0.0829351938934556
2607 -0.8775367739081301 -3.3749081930936873 -2.757435577468304
2572 -1.1321374476495605 0.44695303837189343 -0.44870685482847933
2609 0.2764584600485166 -0.7463863264234125 0.9912662949171428
2612 1.2380838204080598 -3.36788777641543 1.567268137318131
2570 -0.42101721965081257 -2.172031447888393 6.030379304369786
2610 4.695517130412003 -1.6309069101514666 2.0326728297175443
2611 1.013359135138511 -1.62040045411186 -2.260413120046656
2576 3.2652512964106304 3.5828844916364155 -1.7505574654292118
2613 3.1339353373887393 -0.7830357906640448 -2.1150071524679874
2616 -1.8443299693974455 5.00820577435946 1.3353841874825756
2574 0.7889292333382368 -5.269612807737335 -0.8105329244569136
2614 -5.2697486234883595 -1.6013785227812463 -1.4511506967848102
2615 -0.32293109217965027 1.5378033926672212 -1.1138998301853762
2580 3.147076324237578 -1.0142110785683132 -3.14786019818093
2617 0.2078842152496516 -3.884447785439686 1.8508150192491488
2620 1.6396076323891067 2.4232640853528924 0.16067384278047459
2578 6.255632185401441 0.0034368729848990674 -2.5986642947448044
2618 0.5193845950109893 -2.773540642898259 -0.7366749935291217
2619 -0.8437076703164801 1.6015926965498586 0.09235516024696414
2582 2.847983968086411 4.753561818111133 2.552651748273438
2584 1.039784471422702 -0.6755204181192637 -5.040423331920084
2621 -0.36208683170379274 0.26341612905586703 -1.4501918975287071
2622 -2.090569989361055 1.2055587327670114 -0.425506162862712
2623 0.9987878096043814 0.6050068591672547 3.757453910973822
2624 0.1988987664225893 0.06831901747861159 -2.9794412631248735
2586 -2.0103254674041433 -0.3631155490398275 0.5632287303535319
2588 1.544959369883691 5.74666569364654 0.8214581031404737
2625 0.7257542320833953 -4.507708049722865 2.353046895314356
2626 5.533483366751771 1.056517880510728 -0.4452652173339647
2627 3.9504368448245177 -2.100338383602001 -3.6509832983222124
2628 -2.5206146265164904 -0.5833157872281751 1.8577255893972526
2590 -0.3393924059249492 -7.619194940723509 2.3427501433173226
2592 1.7435122296967231 0.6861089523951162 0.37995807707219426
2629 6.333926054585406 -0.328498715977017 -0.16270760846380397
2630 -0.8775882521624746 2.6574124300554947 -2.0838147150423354
2631 4.429008915817725 -3.428773570671016 0.6172807289915027
2632 1.137119761892784 0.6988286771841928 3.3315716814747405
2594 -3.61133039320183 -4.880572435098266 -0.6301938972232307
2596 0.9110460119864364 -4.315866551195631 -0.2520911319086681
2633 -2.8461831120830827 3.285914875911991 -5.085104935997988
2634 0.34843886646215394 -0.24466810994754176 -1.5503252464199602
2635 7.340322259026682 -1.514219861689002 -0.5193458416755954
2636 -1.196257830869589 -1.1097927931526774 2.2595620025964687
2598 -0.4887654484494329 -4.071053374836268 3.386935338204826
2600 1.03131029393572 0.3404841392902644 0.7416730830842698
2637 -1.017231680989434 -0.5355563681994346 -1.7855638303288093
2638 0.29074628884977005 -2.407426867328103 -1.0529741402244779
2639 -2.0566769162011065 -0.059801378998158 -1.7613141093750462
2640 -4.570942611284337 -1.7225636082366327 4.021449910397207
2641 -0.14408998590603148 0.2013772579309127 3.472332314535285
2642 -1.701315426117696 -1.0490920464322002 -1.198864453886456
2643 -5.949793944075596 0.39677679604422766 2.208773674159671
2644 0.1959606834427751 1.716654305506743 0.07417878846628093
2645 2.2349305354924627 0.8343467678849464 2.2358539868956155
2648 -0.19094646147067007 1.4486227179728297 3.8217960648480904
2646 7.498335811464471 -1.6489671226209746 -1.537475149015118
2647 -0.010017683141821459 -0.9638525380279687 -3.546168902402729
2649 4.700024195428512 -6.847833991330776 0.4624007684683467
2652 2.2219051167360533 0.1970488785555449 -0.5189515692792108
2650 -3.973604456946658 5.478605860991558 -2.052715611067901
2651 -0.10900368791037418 1.3355893784297055 -2.472043767320183
2653 -3.879123873339702 2.0669205296553557 -0.8831914794879802
2656 -1.0195001717570895 -2.7667550077973373 -3.514870063778292
2654 1.982299299654027 2.145457525425207 2.5515646592000003
2655 -0.393524865691771 2.557374393680332 -3.499248512582752
2657 -0.3344188606338127 -2.1423011040929474 -0.5985374364655031
2660 -3.788468443584754 -3.923763302818839 -0.4369768725314813
2658 3.6161757044102045 -2.2191405403235773 0.14056434446562802
2659 -2.894770219491298 1.6216312538100817 2.844307549644242
2661 1.8204178778252926 -2.133246439459663 0.44193748690782936
2662 -0.649583493981104 2.680195439541793 -2.0228339213427042
2663 -2.268576793087954 -1.1010463885941004 0.6450560822614171
2664 0.1440972046960067 2.0168333037132187 3.0030194575198528
2665 -3.4859418279491265 1.8586516338304644 0.026714582958302868
2666 2.829497960554041 0.12574327327612647 -3.0119389071314897
2667 1.0305677326251186 1.9153843392643581 1.7777471262927287
2668 -2.179383848863934 0.7461331020927716 -2.653937092333729
2669 1.7413075201253103 -2.006096151123772 2.5880566996540524
2670 4.306897056239741 3.664781310745929 -2.6291220649097076
2671 5.132016250874292 0.28146259699529447 4.004626241666215
2672 0.9901570972717629 -2.081065328315936 0.2963067910520469
2673 0.15670032729390734 -0.4474132050622236 1.062812294158959
2674 -2.3325022907893302 3.2976810527140343 -4.686896936275776
2675 -1.7684521740790398 3.3430628351329 -3.5138793667592054
2676 -3.331397600654759 0.37025190483269144 -1.7622830451458644
2677 -3.8975064601292218 4.120950043068337 -5.941154525699456
2678 3.936785168449333 -4.612395493422003 -2.3291859511830033
2679 -0.8304032214182543 1.4816717995180118 -2.646540732995081
2680 0.5368759299692284 1.9247741536756378 -0.6372958839958158
2681 -1.5625570156928583 -2.2309623654458663 3.2110435193697637
2682 -0.09867603375720801 1.102341651693008 -0.4239385543574419
2683 -1.4836322341325152 2.3495616716991234 3.953725989855008
2684 -1.400265858174646 3.0460180493990663 -3.220736856841308
2685 5.983592138260201 -0.4602231238469326 0.3430139080402912
2688 0.8211040359790367 -4.726998400294309 -4.889407612291846
2686 3.566910610246149 -2.315840908990125 -2.9670733351512357
2687 4.301239437513766 -4.320338533834665 2.8237359856973128
2689 -0.49067478954984667 0.42345934562699966 0.46822299625990427
2692 1.187896799943286 -3.1291427655486985 -2.3888329726589315
2690 1.1333774661033706 0.8319299952685514 0.014658349141658887
2691 -0.4354813602178633 -1.2210360493454668 0.5782713838989986
2693 1.6021728503962034 -3.0602711600062564 4.358586728250482
2696 2.244658864821327 3.5169200364369138 -1.176132138285598
2694 -3.4416688348390867 0.2825904878093417 -2.0892212102438155
2695 -1.1813864191003505 2.0709718058580693 0.5505604124764698
2697 0.19146188226348976 1.091777588706356 -0.8367810039331249
2700 -1.3137211252748404 -1.092847806680778 6.203195085939983
2698 1.4366811659633243 0.2510407421299737 -0.2654307872234391
2699 -4.302870176857037 -3.50251331772591 6.5226547340056875
2701 -1.4045164997590538 0.39381420234811454 -2.920815373226785
2702 -1.709176530354355 -3.6145918029342363 7.016956239656324
2703 2.71125618975861 -1.545361021277009 1.854676203319273
2704 -0.8370456628433401 -1.5050608700338437 6.292594776466856
2705 -4.484920569168265 -1.7338678110191437 -1.5548903560674687
2706 -0.38947519924865714 4.284529591500474 -0.1951654516185683
2707 1.3274115909387023 4.391150046908086 -1.6453011950359984
2708 -1.370900948239818 1.133309324223863 -0.19858432173601973
2709 2.6285454955296133 -1.487583395343497 2.2780353131603133
2710 -1.0229041489481696 -0.06558522058830037 -2.309029478659711
2711 0.2700161009487445 -0.20969950120163075 3.8265813162159024
2712 -1.8482521707938726 7.034668010138283 1.5867353026025641
2713 3.9851668508509306 3.316103464186517 -0.26242039066536926
2714 -2.9474515167118085 -0.9304107511738533 3.8757087026480534
2715 -1.7994104993855693 1.8979980567311536 2.9591772985388856
2716 0.13185411852411597 0.6495167796610265 0.7222381424854614
2717 -2.8791743535392578 2.4810935141311687 3.2457964376666517
2718 -4.7545039551485635 -0.4587013225777955 0.1913400379668164
2719 0.17588654541061263 -0.7918106498683862 0.6755507185951891
2720 -2.811018024959569 -2.2067430768644396 -1.487613207548704
2721 1.3060211050565333 1.511395037159264 -1.7628234198513204
2722 3.761896538337203 6.128202866733149 -0.5423139620919047
2723 2.1903884162581053 -0.9026240473963393 1.4773114312350601
2724 0.5623400106473267 -4.677646216999756 -3.65990033776661
2725 -1.346113656512989 0.09297829381060439 4.837230430966273
2728 0.06354293792030974 -0.05061425319263782 2.1601588516122354
2726 -4.775711221799003 2.4653490821294755 0.886413964956853
2727 -0.5262924687552775 -4.674744338245415 -0.055436367423785854
2729 0.21400848500508418 -0.9009619545608584 4.879847047762144
2732 -1.1770991745639372 2.353494136800549 -0.5165129728681015
2730 -3.0064849352461125 -2.795157493058805 4.353053660150726
2731 1.2962689675330927 -1.9847310864341705 -2.1922761411360696
2733 0.8884694972135934 0.38121932594216545 2.6643227777984966
2736 -1.384199398508189 -2.6235403712046246 -0.8363040365257965
2734 0.409290788908176 -4.222331696189418 -0.20526165854120199
2735 4.884484769710988 3.135766579002238 2.15542907690602
2737 -1.1570832441226095 -1.507022202129487 -1.6110709354258466
2740 1.0085846224516857 -0.1127773578652586 1.1205252574138214
2738 -2.5575931463522186 -2.3273340400338904 -2.6130967550593183
2739 1.0354813139166823 0.13790752752147256 -0.42685635810801353
2741 -0.6317060327633262 1.8500668742079036 -0.6816085150776131
2742 1.2002129896904756 0.7179074531668223 -0.7013739270864218
2743 -0.9284306731773305 3.5987649578884646 1.5089097545423433
2744 2.9488839412813155 3.324600946609031 -3.938479572374594
2745 1.3339728524199754 -2.6908889042972275 3.1225474566745413
2746 -1.6400515650799932 2.427367576704027 -3.478721772664503
2747 -1.5311200287497553 0.040253550349640954 0.49900909096874824
2748 -0.4553633779668528 -1.6380691670094096 0.7621952978218918
2749 -5.408772062976543 0.8074010392955866 1.3985177091801428
2750 -3.8497973463991233 -1.3570969729673366 -2.1231932309657577
2751 -1.7963695535226352 1.1530526031106612 -1.6022205324966965
2752 1.5884027545804928 -1.1787923940961915 -1.4428040528318256
2753 -1.7054547513313292 0.7834644337860373 1.679102000598552
2754 1.4418824516333668 -0.7293676288776266 -0.976457222047538
2755 2.639706110724093 0.49277946235741055 -5.352653228254415
2756 5.144136117550296 -0.005420640111624278 1.1001674026525408
2757 4.9511148690877596 0.04978772392328293 -0.03742658001905309
2758 4.823635484858668 4.000639257732783 1.0186577466924485
2759 1.956119220234759 -1.6138004663959191 1.0559205808878207
2760 -0.13567250841541265 3.1860344276088917 -0.7156555603917598
2761 6.182881997284307 1.4105703111821366 -2.4236589236818524
2762 -5.297493862728751 0.8349297810042573 0.25086421264409253
2763 -0.7885449157394543 3.8594743840795207 -0.9029075249505952
2764 -1.3952120766057772 -0.7225450387463753 -2.1081046870573883
2765 -1.8071806649541562 1.6001098986884492 -0.17451280605704153
2768 -1.293353559037171 3.1149656813953386 -2.0982142953885083
2766 -6.845340970985189 1.4225383857246687 4.02159478083973
2767 4.2915607126002895 -1.9501933302184147 0.6957578455559053
2769 2.1191159536647763 -1.637135838522868 -5.24073981859172
2772 3.1191249211426513 2.9319006540076864 2.1056145037162457
2770 -2.516389136181623 0.0817251381299899 0.2748922966593469
2771 -1.2508669662901997 -0.22510024171708048 2.9881759106933474
2773 -0.01355961407544398 -4.493360715432646 -1.2015219306312415
2776 2.4755461821919127 0.7997342539132313 2.2103291774360523
2774 -0.7734621105226164 -3.886110180756095 2.9217669217092084
2775 5.455263374960408 1.7792402316357463 -2.098129198673704
2777 -0.43768709210591994 -2.6874100044523073 -4.972670558800357
2780 -2.3312208702019257 2.854982265035768 -0.4831004493679953
2778 -1.4444612606880873 -0.43985445813372875 2.480353932223357
2779 2.4550436887507963 3.642994419990907 -1.6021475020573002
2781 1.9000728723473528 -1.6043469323071584 -4.642170561236594
2782 3.1177383682522115 -1.9927696856546173 -1.8845667012475924
2783 -2.220781586497797 -4.315933936765609 3.067137262483508
2784 -1.7710061398290904 4.767149625735378 -2.7530456661293163
2785 3.054935393938947 -2.5104198900629457 -1.3385444147848553
2786 4.623380097721979 1.1702817047663185 2.069057750780805
2787 -2.6967640310860834 2.2111268339220915 3.223570592340169
2788 -3.296679678685807 -3.808751174283723 -3.4132745676426826
2789 0.26952738661777687 -1.805720058204044 -1.4054798106646478
2790 1.7024478544945958 -0.06396047245013448 2.2127135178487687
2791 -1.4486894533095012 1.444996804754818 4.336958639988345
2792 -1.379203215860324 -0.2650548700972187 0.1467112428518712
2793 -1.7785218360710673 -4.666569815976687 -2.5281656218848894
2794 1.1031354439672159 0.8338082378677629 -6.465738970302433
2795 1.983301888681099 -1.3562391951205177 0.6048085005062496
2796 -1.915030604720312 4.827111308961165 -2.063382116423313
2797 1.174803702917336 -3.166773945662279 -5.779867610438556
2798 -5.963722187601619 0.3968932941129415 -4.098019797492408
2799 -2.641448558617251 -1.8447300199144527 -0.8216193504733192
2800 -1.553256413886361 -0.7486930761236221 2.0652378913323575
2801 1.7517100945401376 2.033855642154336 4.1391767592938855
2802 -2.3101092945345805 -1.741361287649271 5.489704624870063
2803 0.9340911099822117 -2.675812905246543 -0.9992317081333736
2804 -0.36628124524314665 -4.527079214626158 0.48805306233568385
2841 -1.9584821813155642 0.14954984542500518 0.8625299568721951
2843 -3.0276100291404675 2.203614470862416 0.7250976551755044
2805 -1.3202470690757746 0.06156068524091838 -0.8260237142784634
2808 -0.2585504401904699 -3.325273343759014 3.933671152880099
2845 1.9157726099717631 -0.9311145443065464 -1.7546109820903042
2806 5.365690287801775 -0.560467632901862 -2.7195443674364626
2807 -2.516060800495299 1.0675552129724883 -0.8620963439982255
2847 2.4255611123999006 -3.070006803014375 0.10366558388794038
2809 -1.3467142513924788 1.0907092111838574 1.8670427548372737
2812 -2.5918602608642987 -1.2243674087077865 -0.01198016469347128
2849 1.2491908255518975 -0.29149368840941203 1.5746217948046368
2810 3.503373993531949 0.3546115391776705 -3.3754302123389435
2811 0.3915729067407556 1.6520271215226554 2.019201444532501
2851 -2.9530938657642776 -1.7651668997170615 1.969685103981424
2813 -1.7515332920126898 -3.994729707715403 1.053522578032031
2816 -3.272421138967967 2.7473574439978927 -0.9597626159215574
2853 -2.057996755172582 6.032079353389918 0.2569341075498211
2814 -3.23193364250448 4.14995812382526 0.3167443522250074
2815 -0.7822666443351715 0.6444685147550309 -1.7377606769205833
2855 -1.0475542728019733 6.794052347847383 -2.2200319311297156
2817 0.3701108469264134 3.098064855217899 0.3005066681308821
2820 -2.3633713593687786 -5.615611524416386 -1.5796796120766816
2857 2.322034537876246 1.8775665247288502 2.7089909480972034
2818 0.779291542189909 -0.4758561355628009 -0.8907032544187349
2819 0.5397438689555669 1.6440834468865344 -2.317180477500112
2859 4.722714866544718 -2.6958298115156607 2.5672696796896677
2821 -1.3902180249113112 -2.7326298191714167 1.1839389672616143
2822 0.11132396951405744 -4.344901712548901 2.465429824673605
2823 -1.8852975781830106 0.9629970029917122 -2.0882742661219935
2824 1.6228969702401468 -2.5115001961737553 3.8545527363088605
2861 -2.7148087576109403 0.2787738162603526 3.3416190319590298
2863 0.05575902850082342 0.1287707031049395 -0.011983744978982852
2825 5.441693360612698 3.572542805549689 0.04526254949743175
2826 -4.764279946009926 0.40995255952132437 -5.767134803514747
2827 -0.7648713423463956 -1.1600587545124326 1.8495243099507657
2828 5.01016128256618 -2.19798447027474 1.7402579036824182
2865 -0.7617907524993877 -1.2523747703542636 0.7965304454517287
2867 -0.6292896794867335 4.065930897749411 -0.6106917356077218
2829 3.2641149772041755 5.02959004146661 0.9580261654226205
2830 -1.9096381966546332 -0.6419284693768852 0.6627963593138635
2831 -0.4886190066866083 -0.3870922473840602 -5.873025595445826
2832 5.024639490405953 -1.787210728576688 -1.1439092199848404
2869 -2.2138926726434733 1.2091404322548147 3.3804592261041115
2871 -1.0044855915756303 4.23209993085128 0.09892028024509389
2833 2.513945568871951 0.3192127669342637 -2.4368059927154104
2834 1.9177792871684127 -0.8017923182893195 0.8809130075098324
2835 2.7640100454744494 -4.400548638487741 -0.18944136836177572
2836 -1.4599151815251754 -0.20360801287090385 -3.13598479660935
2873 4.25979351855231 0.19037265320187746 -0.5771172190495186
2875 -2.4328082206909123 -3.980833705621803 0.007095719992766429
2837 -1.327377351301765 -0.6349604630758486 1.5043110845424252
2838 1.2950230189453709 -0.7188645476750766 -2.339038159120942
2839 -0.9882592549623234 -3.0450280737656 -2.306960810274821
2840 -1.922150080568179 4.775778797665799 -3.630406116489002
2877 0.5848715311281667 3.806229866488689 -1.7941108127578893
2879 0.5727242505480298 0.26416833605691276 -6.157639192322745
2842 1.847484632985525 -0.37230713153688233 -0.5453975436157134
2844 1.7287335652586613 2.696886454540496 -0.020809371083956738
2881 1.480543581225138 -8.54082744879735 -2.271742896010277
2883 -1.3500997047740695 3.4545543242186 2.292862537069186
2848 -0.23217012491211728 0.3151144954576409 -1.5720666437644557
2885 -0.8878383135128517 2.6923717691622886 0.10452485618336496
2846 2.231330949487616 -5.440958384730889 -1.5703355808648165
2887 -2.3590565774959584 -0.27087492587671114 0.14869170217280347
2852 0.9305709219301229 -1.8149335336385533 -4.7133190606386535
2889 -0.3076357967805932 -1.214220561161623 1.605958122524514
2850 -0.8777277972137921 -0.41847717597073797 -1.1102015265650997
2891 1.2618406752118139 3.0238687533667283 -0.06735393698732947
2856 -0.11393716879104776 -0.3954483442347962 0.31338857328427766
2893 3.6919332031125043 -3.6588283204075025 2.2053845962773684
2854 4.204937596254793 3.321056401022225 1.3370039095210868
2895 -3.078265805675424 -2.438330650955853 0.1331021402040601
2860 -3.384174446899019 3.358486152830581 4.586099726489061
2897 -7.465959739442814 3.81066807257398 0.206009640655801
2858 4.4290077152786695 1.4212506691175855 0.21985584046329562
2899 3.102323500762168 -1.8218818111200183 0.1424611546522836
2862 3.557161845333236 -2.3179860775355574 -3.0118171763528228
2864 1.8785529934701939 -0.7894783017107349 3.2136690957982172
2901 2.859783014069658 3.9826661497330873 1.4382526188869371
2903 3.544343515778286 -0.8763424998634987 0.7077305087853349
2866 -2.7762059190951307 3.887693902214638 0.7355098579823135
2868 1.13048797194745 5.321071957150297 -1.8049470000090395
2905 2.2659026069690955 -1.7313613550734606 0.01575816973217051
2907 0.030534304980776205 6.996571477807669 1.544805345339748
2870 1.8702146178937384 -6.373214373533523 -1.565152609645745
2872 -2.477180564553161 4.902406997374557 0.9838255903917182
2909 1.6027378906546124 3.6523317493439444 -0.8928490749178453
2911 2.7285918227809445 -3.6798658705578857 1.2705183569222858
2874 1.0782296885614646 -4.662215851448606 5.0243326418811955
2876 0.25958666793781443 -2.135758188784141 1.9247679324967157
2913 1.8333385969662626 -3.5213858307714427 -2.893406671239112
2915 3.0207863483039867 -2.0397073825764096 -1.6709131596261007
2878 -4.609777479440639 -1.508818956376593 0.8447534378932369
2880 0.8040293437967212 -2.848071697870004 0.9279911280283613
2917 2.1455116298641785 0.512143061134283 0.10016282977706333
2919 -0.2119301501550808 3.132784822730045 -4.351898965906065
2882 -0.31823087200175426 -4.042887765026435 0.9972669259557103
2884 -0.2719546451965202 -3.04950045956747 6.058481353059568
2921 -2.4124429826164553 2.6230448850155215 -1.8146070422895892
2923 2.5608652412761725 1.8517413065417676 3.687673629588475
2888 -1.1587953247440135 -1.6556059772481513 0.7433996292561451
2925 6.273329195697695 1.4318723158240954 -0.04084093780152497
2886 -1.7412420878112453 2.9072441367963107 -3.8153668689333395
2927 0.9677749346406179 0.44124228464926535 -4.114348379511957
2892 -0.33934361343010305 -0.23864373298980457 -0.7065509682095243
2929 -7.0845645904755505 2.076851250856438 0.29414885381679307
2890 0.7568726425592114 -0.6657507869690404 -0.8742411189990156
2931 0.8134787406523533 -0.8007791825434295 -2.0201446937658614
2896 0.9482330863695089 2.75866651457613 3.5703965181259902
2933 1.8481858176125705 -0.2862846890107066 1.7388589527318503
2894 -1.2024965483348542 -0.3276542682796319 -0.8365336341055013
2935 -1.3454321261113908 2.413362833741325 -1.5429019764351102
2900 2.088980550249494 0.5324885993980847 -3.4700054800758604
2937 -6.078214441195054 0.015882733131490814 1.668090007158455
2898 -3.3022783214736178 -4.929224965084771 -0.46489826500618664
2939 1.9889021977587622 2.643279904366139 0.5017861189715614
2902 4.205890656182502 -1.883254908528239 -0.6548726593707767
2904 1.1587822256440163 -1.4831507580091143 -3.403282367748907
2941 0.003071066330087659 -5.322365286721393 0.047279310772487405
2943 -0.7039448387398171 -2.5357699945287733 -0.7399439803481459
2906 -4.870621929907026 -4.128154600061986 -3.2236481646500517
2908 -0.2660948129816884 4.986164045860985 -1.9313009728457036
2945 0.10848014329691899 -2.0049132944441044 0.13761780164320989
2947 -1.5352507038669874 0.38829317754046017 0.4346500618586756
2910 7.803281749841378 -1.491321658804286 -4.008012217775478
2912 -1.0048539082885821 -1.911072333400889 1.5854905181699521
2949 0.2576962191320831 -1.789051162471694 -5.864259832264331
2951 -0.18584874839271037 0.9858516437021618 2.756157328731314
2914 0.712768985522751 -3.525895929995123 0.6543238743081592
2916 2.528366653477894 -0.498264466753814 -4.281363406545857
2953 0.2902705676139443 4.701980282808111 6.3682353913173255
2955 2.8389098615734776 3.1209459326337856 2.954724924341834
2918 2.1392113694062918 -2.3955697888463745 -0.6787942246165046
2920 -0.8111783634671911 2.1625025200192876 1.2173612901242081
2957 -0.6875685255159394 -6.807080344907633 0.05715171071177115
2959 -2.9877270537445706 3.738617336600738 -2.7535531026394895
2922 -2.4419811894842627 -0.4864778615709898 -0.343624616763867
2924 2.726201532544316 -5.260130179123706 -0.9909144496390656
2961 3.446503534053861 -2.62559550000752 1.770469068447843
2963 3.697067484712843 -0.31108987127935034 2.9007003224676278
2928 3.671652765299657 0.6863715269551829 0.7528030101003835
2965 2.5465354341877187 -2.8296610514150773 -4.230388817448794
2926 1.5212099997506254 -0.38989800469755687 1.8400488849324008
2967 4.923225554156227 -1.2529608583022678 2.937397273841793
2932 3.0512087837845008 -2.5782937360683658 -1.437536688672008
2969 0.6932491578294312 1.2576370315237195 -2.1304693294772914
2930 -2.291664942777472 -2.0205996529926042 -4.985923760314378
2971 5.047599388872587 -0.5655661265903835 1.8530283413334163
2936 -4.69464182338034 -4.570142521732638 -0.6080038975629626
2973 0.30854347005613453 -2.4418837650576783 1.8592818711366754
2934 -5.422676080813351 -1.7953475346057401 -3.578277704724942
2975 -2.238851971800977 -5.042537904416109 3.4601036293180454
2940 -5.012371716454387 -3.768891535219557 4.194001379597047
2977 0.6086905187147599 -0.002181155784794368 3.5989939365956505
2938 -3.1788575424507792 -1.3691509080259727 -1.1645050713727148
2979 -0.9474318863142046 3.5710156755044786 -0.9838387163461063
2942 -1.3286082802816463 -2.118267470813073 2.080568376752836
2944 -1.1179668601026074 0.44615376099950066 6.008208270198887
2981 -5.68018547807958 -3.085300786054831 1.957313769715831
2983 0.24646371992753788 -1.9566929165781006 -2.0215871845370317
2946 -2.007871914971567 -0.7666746537014384 -3.339833625475011
2948 4.389622602027947 -3.8583876872720153 -1.1357870480210932
2985 -0.22240138125955483 1.122819456051164 2.1963919533129386
2987 0.19813576060794652 -0.6548641616035574 -3.4701296198958613
2950 -0.18019934446511246 -1.02947095399724 1.6943284212251266
2952 -0.9310134845807675 2.374701766176632 0.30335866944554135
2989 -2.96259359325177 -0.7641453223791324 4.8684402581246875
2991 -0.3971898139997071 -1.1405113455108207 -2.4088022985981676
2954 -0.03022072793678402 -1.439048416000663 -1.2518839328363807
2956 5.472563442268875 -1.6503946719804665 -3.1270503588908536
2993 -4.12390238096795 3.144133802600967 1.6946966082141524
2995 1.986899026706891 -2.18466600270632 -1.5468999891686734
2958 3.7213900557115034 -2.7402078736896294 1.5244739842911497
2960 -2.9789687604183603 2.5137529422297806 3.2389057875047067
2997 -3.987119783494099 -2.8183793129485917 -3.8176895621401945
2999 -2.685184728452842 2.4753045545628147 0.5993331324156599
2962 0.6426205561101792 6.815166920109388 -0.942563814339328
2964 3.581907315728356 -2.7927679833344925 -0.11522279266869545
3001 2.3883883835840383 -1.1245996654399848 0.8249766813805531
3002 -2.773905886045853 0.6782628209338101 1.2562022849895598
3003 -0.4120375404711296 -2.0918290184308312 -0.5162269901259617
3004 -1.4872421688046864 0.8972428027855219 -3.643459431929757
2968 -2.024441474833136 1.0582194891337058 1.4938241919132167
3005 3.8593779172643368 -3.882523940023534 3.312572732730077
3008 -0.3278320457230512 -5.40421783838227 2.620430671869702
2966 -0.4545960836971271 -2.2939885048885835 4.448694202976315
3006 -0.44418877191006234 1.777631551353926 -3.152634177960693
3007 1.274494082018173 -0.9561100616802944 2.459490881795179
2972 -2.254060373616194 -7.916972514254902 1.069850786316213
3009 -1.5514315768721525 -0.3817563995058683 -3.602412353942931
3012 3.393855227726456 -0.6703428861366937 -2.673958481264539
2970 -1.1104939248512118 2.3861058306329865 -1.4603260784893328
3010 3.3921064132197496 -3.394337510232394 2.7296771253512726
3011 -2.8964793191881815 0.9698738652271239 -0.44096475982908845
2976 -1.0467533048508917 -2.366121185621397 -2.098225551714864
3013 2.3637379261437226 0.9385530309627582 -4.089360459403288
3016 0.6424032554031269 0.7297735817047988 -0.4329575983510973
2974 -0.1671458658520029 -2.8449297801353763 1.9163767754055865
3014 2.6308033785688236 2.049619972225507 -0.004865970032489066
3015 -2.1786140718415865 0.8215405491802689 -5.2251202846838725
2980 0.7104936313886301 0.993513986282857 2.296860858390517
3017 2.505124186753468 -4.930114733222096 6.879168373702289
3020 3.5635778659991146 -1.6662391087077753 0.1871675361155787
2978 2.94730887639929 0.5158691063419883 -0.797773341035925
3018 1.387754951011345 -3.282028988155621 -0.46576844794782707
3019 -3.440804366537877 -1.6688929326028374 0.5204662387105041
2982 0.4390856004660394 1.6023386190392725 5.596938559936905
2984 1.6943362512245543 0.6884317398707157 2.4958855358366323
3021 -2.3670963076517797 -1.8682568447876 1.325727423939843
3022 2.0750932847375907 -2.7121812971776267 0.8037853179889304
3023 -4.947949854332028 -2.086238750842665 3.764560153599927
3024 -2.5424139851744294 -0.1936939092416583 1.0206242261058578
2986 0.18355564008792505 -1.4195569497365141 -3.828735453007667
2988 -1.6312440767194485 -0.6367465493165304 1.6360415072795058
3025 2.514075693863969 0.8407543645323673 -4.5213139029595695
3026 -1.9568681655013869 2.19639634614608 2.691051734973198
3027 -1.912761902606972 0.01357305476870337 0.11601154087383372
3028 -3.4122386044588215 -4.334114854954085 -1.37998288777942
2990 1.3599721612013882 2.1245530484431074 -6.394853640569591
2992 -0.19877482756934178 1.423880842993102 -2.7528901015634655
3029 -2.068549502913853 5.721747420853951 0.6700664797323413
3030 -2.2792089495758656 0.9037791946169181 -2.4671932751469208
3031 -2.702925461641642 0.516416949018689 -0.7192298558605733
3032 1.7007356536786054 -5.591501538992332 -1.0707853403825547
2994 6.1824772733217195 2.195296779246336 1.3268318063785913
2996 -0.3911085854676128 1.6342445712921314 -0.9458014383558667
3033 -0.920233265435338 2.056879863703941 -6.787380248298944
3034 -4.338807445998412 4.593030469589288 -1.1109715308463306
3035 4.158367606979018 4.584365783832623 -3.603695704822039
3036 5.390360742815255 -1.941738585937778 0.25356041416507386
2998 -1.404003113071734 -1.8841680979341262 2.273801863963383
3000 -0.19957435802803777 0.48757881952606213 -0.020722215868481213
3037 4.535114043266764 2.754052038216726 1.0301475436776526
3038 0.0475230301570085 2.3827123739976788 0.6046552571435378
3039 1.6409053804802698 -3.415629196713941 -1.3939178087945974
3040 2.3074188576046533 3.8503063048056996 2.6021848051753755
3041 -0.8184027044422104 1.7917455954640447 -1.8144918418820974
3042 -1.130561911196015 -0.046615962830517055 0.11803901041311456
3043 2.5313329887050267 -0.39644448923983777 -0.255724375882902
3044 0.07611640273813336 -4.699721682468387 0.6607883321714559
3045 -2.1963434302979574 -4.019636633066083 4.630999264708728
3048 -3.7935478265403293 -3.813294870088521 1.3144032967494745
3046 2.865911788618646 1.873592692085672 2.270522158111124
3047 -1.9950344374435391 -2.8319091608097886 -0.4857739198122959
3049 -0.44653710488931597 2.4260999164093917 -0.44477015921480684
3052 2.2752689671006507 3.433791550901744 1.4363175325621063
3050 0.3370269629907026 1.6207952769589167 7.394230390364446
3051 1.9300742645204096 -2.0694460400722936 5.6431052514733535
3053 0.9033395226116282 -0.03889984740223991 2.578889083294004
3056 -0.4545021078154199 -5.604954155005723 -0.3429893575470332
3054 2.782032141455283 -1.4389798856394664 -3.046760844294235
3055 0.6007261456774144 -1.4144803971444446 1.047460049355265
3057 -4.107725247818015 -2.2009585041242663 -0.4843102621662826
3060 1.3219973782811607 -5.417306562646564 -1.1797272511484718
3058 2.8053404743865213 -0.013663323898213217 1.8832170387345
3059 3.0635438900569194 -1.8522260286520367 -2.469438708199107
3061 -1.2309906160205486 -0.7307462227772331 0.004614997922961833
3062 -2.4568295124657165 0.40722704727545783 1.221140142595564
3063 0.22023830585093668 -6.276112593372973 0.9474089254563919
3064 2.130069918231586 -0.7081536687145934 0.4202090078284218
3065 -0.11490200793503329 -0.4794267854805456 0.6410180535559937
3066 -2.6854078104946346 -3.127870123348742 3.7003498819394944
3067 -3.4925250024673895 -0.8226066173079379 0.9337947679133884
3068 6.875990999008774 -1.6973258291745223 2.6438395363048772
3069 1.3897675453424385 -1.3814141108404412 0.987773312165946
3070 -2.233715063484996 1.5064410389948133 -0.7479065263392253
3071 -2.8187659772427067 -2.5092114185760503 -0.6864979378820076
3072 -5.507158915457302 4.619076024757631 -1.1697851944758217
3073 0.32671240026823517 -2.8787418993872715 -1.7061214587483622
3074 -1.3217713326071525 -0.1903549191402734 4.711072682938925
3075 1.905001567534417 3.8957354368546997 3.0236565759700644
3076 -1.3463451372328614 0.3625084743258585 4.088922187107779
3077 -5.744832145072147 -0.3508387966967458 -0.7563712225028064
3078 1.908977287833164 -3.1551503786223796 -2.0053405689446206
3079 -4.080312107164211 -2.7366504107230534 -4.118244937268248
3080 0.24647518835630833 2.0793611463221775 -0.40560695068590036
3081 1.4643296030157986 -5.2384374930019115 -3.051856030799109
3082 -1.3287980935495793 1.7789388498690506 -0.30755948769777713
3083 1.9891059080117888 1.191776656346824 -6.428543318544514
3084 4.904621010790654 0.02114822118394908 -2.0963806613503326
3085 -4.179741761880185 -1.941774515672296 -5.262459974450768
3088 4.949404258233987 -0.28704133551518723 0.04057294074809228
3086 2.4993467032522636 -2.934417801045119 3.0288284937431977
3087 2.6452009607607496 -3.5392846136067275 3.8820139137467446
3089 -1.2444979830344065 -0.3524939603405407 2.213911072226063
3092 -0.5948537739959571 5.009188429159859 0.1863201693666251
3090 0.6875967247011118 -3.9595643301673653 0.893799155126179
3091 -2.720923357935625 6.829103274288053 0.1494342755044434
3093 1.21321696580765 -2.6724624600896685 -3.0663578256864477
3096 -1.5833885426519003 -0.2589329419460065 0.18976917283963568
3094 -1.2566424420987898 -0.4431259473445334 1.442073468510925
3095 -2.5347000522676146 -0.17112998327748158 -0.4941838744328635
3097 -5.566030886672196 -1.4463563759281874 -4.3815233793206305
3100 1.0934609980996224 -2.347270728271766 2.0931346889924196
3098 -1.2173378914900264 -4.850601731439662 2.757459275735882
3099 1.3827273906951931 -0.9588996597715551 2.774171124998085
3101 2.079178394881403 2.9194902598466554 -3.597595805151136
3102 3.1020733289344014 2.078234198214915 3.116557077855197
3103 2.453614858345819 2.7716876319933537 0.7023594770926912
3104 -2.7211590504490255 1.1132629655072943 -2.879186164521356
3105 0.43710259286007275 1.1063866682529444 -0.9870286718543503
3106 -3.297746448966952 -0.7339709780871472 -0.12008623814427669
3107 1.036417522126405 3.170770948287619 -0.9759917364987548
3108 1.3391774283219628 3.1257681619895874 1.8808220611382243
3109 1.6085112193172584 -0.606362795939017 0.10641518062161523
3110 0.4617488539172581 -1.523927537871973 2.4243249378639935
3111 0.6860635571569429 0.7876848731515427 6.0947207513161015
3112 -0.5546623631062922 -1.5425781790907014 1.468217314706025
3113 1.4476505386167755 2.162378419738161 2.3936348328865593
3114 0.1616196474574194 4.700759685035559 -1.7775445234893545
3115 -0.9137706052674376 -0.6417198285451239 -0.9004839687464249
3116 3.9916117990692315 5.029429455099845 3.507927753807752
3117 2.1496791940912097 -0.4814137788829385 2.652478418595551
3118 -0.338522929091203 2.6229011057323985 1.3039475448855178
3119 -1.030941513486616 8.313127251484056 4.272760149840678
3120 -2.1043984154216036 4.5219478937119915 2.7918794327191327
3121 5.017950354784141 4.238434247954278 -1.6512566542926783
3122 -3.729610966289548 -3.5509453044734567 -0.8425192676503209
3123 2.762300039065757 2.5819985096894413 3.012489799855203
3124 0.016567587977590687 8.682592762118306 1.8922477976227094
3125 3.602875308118958 -0.5267398235340052 0.8384303231832952
3128 -0.1470276657873596 3.0232074629042334 3.1701775431638852
3126 0.8583254330903316 0.9193298425067532 -1.2330201485436636
3127 -3.3876456897128167 0.44241539588396533 -0.9243501631153688
3129 1.873989330596744 -1.4136565347558492 3.6523294598166576
3132 -0.34955244020791953 1.3014884850225454 -3.0067277404007853
3130 -3.9830739071308585 4.6462254133147605 -0.9458839133664309
3131 5.4980618631086555 -2.5306420301613297 -2.3245639715530633
3133 -1.5320667583303098 4.237763905730767 0.39311101868621917
3136 2.181896684438179 2.1372570900613574 0.6785386681305938
3134 -0.12361435094358476 3.3598074352940097 0.09248307272946724
3135 -5.81519549096484 1.0036909419077846 2.445310636798251
3137 4.34833147090591 -2.848083671405989 1.7453196627243215
3140 -0.3940115119033172 -2.4394082281954153 1.4495332896537396
3138 -6.34693990678385 5.039535759675585 0.264546743560175
3139 -3.1388918963306063 6.693156443039048 -1.46264153068152
3141 -0.8284067382748368 4.0472556645081905 -2.0129869034458903
3142 -3.9635138511769314 -2.6741698229493633 -0.017777030741542448
3143 0.006545337035483236 1.6594188498121927 -0.5889091004546573
3144 -2.381569783719051 5.343540320290208 -1.2664885662055971
3145 -0.2515776322930494 -3.0687884691869187 -6.305427064913684
3146 4.357602077602545 -0.679448934976167 2.6239241216427267
3147 -1.826291964936418 -4.368894780722448 0.7950319495367336
3148 0.2828535359311946 1.0070333541722196 -4.504020496820751
3149 0.7074520330404548 5.464045896719051 -3.337222897483884
3150 4.0105310043533215 1.202735527762843 0.9692368335522656
3151 2.8338942242834326 -3.7035148723230775 -2.327464487228691
3152 -4.994673384382471 2.6375026707517457 -0.12404895331891708
3153 -2.1868618592024394 -2.4882790447882104 -1.3602521639540661
3154 1.7934020485267903 -1.5419593578001882 -3.8064726576792705
3155 2.9067597046863503 -1.500178571075519 -0.2931005816121108
3156 10.353526975739873 3.1078118669904393 0.6870409378970052
3157 0.8323670319020388 -1.4328217036473083 -0.2696586180107953
3158 2.6003638422084814 -6.073362849385177 -0.8357452147344856
3159 -4.098104595961468 -0.8029607101714046 -1.5036402546189223
3160 -0.26556380980225 -2.9959911926969083 -2.8771938257275167
3161 -5.6320305997506 -1.2798070904688128 -0.273520069030686
3162 1.5291100717975605 5.255162272991043 -6.018679348775037
3163 1.2256344494236318 0.09615444114065193 1.9161654009153612
3164 -1.6312213443572434 2.209841990294449 1.393638492188684
3165 2.0165338049947534 -1.7739868040887328 4.208062411074557
3168 -1.3624452443425947 1.4884380987620474 3.470357589336478
3166 -0.48958745757297534 -0.19157442055728857 -2.7716526004741473
3167 2.0704793638049432 1.2913468371109442 -2.100972293489676
3169 0.39865479302199014 -1.7843450411372581 2.1469516648209206
3172 1.408624254425062 4.49529373832114 0.6980173470420019
3170 -1.4069477472936869 -3.086918079322906 -0.8394240840302444
3171 4.27086574020659 0.31467204248137487 1.6535632844655745
3173 -2.078848972330034 -0.5652073838027794 -3.2240662993692815
3176 1.6407799955323932 0.023900317601750147 1.6443596250741614
3174 -0.12264760418425218 2.139379105632695 0.5723092312879509
3175 -1.8443675899363958 0.9170428222212882 1.114859557636234
3177 -2.1348577906643404 1.4114359703858275 1.9181872847961758
3180 -1.3703037249504502 1.642705261448956 -2.69308543622973
3178 -4.753960929027556 -0.6617531023599301 3.5605759168039546
3179 -1.3544086369448751 -2.2634835385072227 -0.5587753346133056
3181 -1.3902750903707153 -0.03105496718566689 -4.085853894721419
3182 -0.09592531369927604 2.84469197381322 0.2715382146323779
3183 -1.218655052504005 3.8066923131943144 1.9119186946112303
3184 1.617667884187661 -0.06397221641509977 1.8848792825413712
3185 -0.9712248749977188 0.6677597104257016 3.648454171948404
3186 3.154902558738444 1.5909176913129794 3.716301867115905
3187 3.969791951067173 -3.637503682025548 0.012764951021474775
3188 -2.2484262121388197 -3.4286713125328787 -2.9774445864293826
3189 3.3711316180315203 -6.6028924976243655 -0.5020728585245666
3190 4.316944906753278 0.4603766666016792 2.9587578228029394
3191 0.4439522894727022 1.4016386412692863 -2.6276287868541814
3192 -1.4792625211036217 0.9586477241596517 1.1391045894488685
3193 1.0524236495325405 -0.8792784914980201 -1.2208134371060084
3194 1.0092268070457104 -0.253856375416155 -0.11607713112987834
3195 6.918417710755422 2.6800647981709274 2.2826603460947354
3196 7.1018550693652625 2.1126204559125874 3.2356630950162333
3197 -1.8935734577845877 0.2741741136093518 2.9720464054367666
3198 -5.782326956117699 -1.4602441164955073 1.2142914447625648
3199 0.8911323362868041 -1.8002050602705064 -0.5641822883486055
3200 5.562492077260602 7.345858623213751 -1.71342209157398
3201 -5.438814891453884 0.8121691901351428 -4.914509248625899
3202 0.3328718287928014 3.1193361476072905 -1.5109961062248458
3203 3.1803154980523245 4.251103766103055 -2.037945367853445
3204 -1.9075243048214119 -0.2809290597171259 -0.06761495900253912
3241 -4.324657873543475 -1.3271030038934126 -2.1079911494854664
3243 -3.792326882635322 -4.148751515441991 -2.2700009304376434
3205 1.6075793088414647 -0.7200843516039515 1.0955795422331918
3208 -1.6661242717260973 -1.890507904465071 0.750437008499944
3245 -2.0068634256593545 -0.07354774302319776 0.8187339869458895
3206 -1.833065962751507 0.8915817659621719 2.619806558177554
3207 -2.6186603422457977 3.0736358991012915 3.621152800953856
3247 -3.7239632744484066 -1.9809225926391332 -1.236957186070564
3209 -3.111996941077809 -1.7489242772255114 1.7319037733104405
3212 -0.9300374222256608 0.9422146620067929 1.751816381960528
3249 -2.434621938092001 0.7237764061212408 -0.6473850722184429
3210 -2.5841219229318937 -0.7515464788001701 2.325484350704203
3211 1.2014888687685097 -1.8610570740149563 -5.5419304097058975
3251 -0.8833664431275167 0.3993953937638891 0.27032426092637507
3213 1.6187283443013467 2.3541041550382995 -4.556240349292879
3216 0.9600195891940589 2.0752292982324247 0.567574005905287
3253 2.2886720248446673 0.7000960400867193 3.4365849643727207
3214 -1.420215722598724 -0.3937970770724301 0.03097892182519245
3215 -1.5349751125514999 1.5848500860953845 -1.5407013901435298
3255 -2.518546762662174 -4.652117438179814 2.0704847996857354
3217 1.9583148648699171 1.298338509900651 -3.024926968461427
3220 -0.7962374029025348 6.7116816622563835 5.971388290114422
3257 1.88523450074117 0.7888011447332263 1.6854724379763082
3218 2.4664642688177936 4.018518849317387 0.8973462220036661
3219 -0.17615460612021697 1.9001790971103298 -0.05109188319299754
3259 1.524672146304126 4.354410187574214 1.7106045250120643
3221 -0.6816317193069941 -2.312180632531309 -2.053809709040177
3222 2.2793714986341502 -1.1807148327851051 1.9666331329304507
3223 -1.944290964485511 -1.1485738906845133 -1.8809353136655913
3224 2.3689052574907925 1.5818831376398785 2.510161232530619
3261 3.1929432373918707 -5.851274676014252 1.806680049977411
3263 1.484832463283801 0.5335204521923691 -1.8602660956997343
3225 0.9099528189579604 -1.4013635483097338 0.8553143995255991
3226 -1.9608810682709903 2.4066664220490277 0.4852990732107505
3227 1.4581283826647253 -4.061138384825978 0.9344939190502821
3228 3.6927698151512764 -0.971003295398231 0.6724141326398904
3265 -6.165746577575889 2.373769939234113 -3.043102688882798
3267 -2.7503876083050853 4.367591659860393 2.4832523498114414
3229 1.658071644771261 -2.432953147392867 0.5547641580508315
3230 -0.8283700019510847 4.438368063178355 1.4891274567270318
3231 -1.9922720337765196 -5.2948373920612966 2.0506899517683594
3232 0.8298524823249611 -2.6999400404832463 -1.1909783992546332
3269 -0.013392787748220624 -1.9067719478592757 1.2442976533280439
3271 -1.8911376968997193 1.7929475092260245 -4.329535053087685
3233 -2.7800187969834735 -1.7525275565885297 0.4891865220230657
3234 -1.5812770893186685 0.945820637825453 1.6266526304746425
3235 -2.124423732381823 -3.1267636476097467 0.22763160337615782
3236 -2.199289492349131 2.365761542607368 1.8180835995322788
3273 0.4740231489187958 0.505153051172126 2.0443486332617047
3275 1.3871826521507897 1.3140404264178827 0.03631219122430245
3237 1.5207871437358635 -1.1059001743857906 3.3607100251305884
3238 -1.9925553977596322 3.1509156178953814 -0.2703441370193658
3239 -0.2542650883298012 0.7598391178308903 -3.3130048119436077
3240 2.7926015742366355 -1.914114689864173 -0.31120215101657833
3277 -2.206059849691424 0.5821969094435405 -2.4111176220365618
3279 0.8949259350307207 2.8556402833173595 -3.3975862682106164
3242 -2.9056223151095817 2.3234676863723327 -0.8601829816394853
3244 -0.057714184361313536 -0.8655468240484004 1.877483536734085
3281 -3.487689002092026 -2.376431509162295 -1.867391976681113
3283 2.1802365964098174 -2.716563584858176 5.827681961660401
3248 0.7806343515096585 4.132619686072968 -0.37833520672001325
3285 -0.6022509663538478 0.6137339809818522 -0.14855853141336314
3246 -3.457072554047886 -1.8654511844401607 1.7091545172224996
3287 2.0484723195821593 1.394740407907355 -4.364168687734438
3252 -1.4854842095706697 0.9901755783287071 -1.1165454286722674
3289 -2.5105167910189943 0.12524718396841034 1.2584491721656224
3250 -1.4946547568030522 0.6698213423954356 1.3027600150540175
3291 2.8650969425021984 2.1488903829696313 1.2636458983126282
3256 2.4086468185700656 0.12794956115611208 -0.07256504214656383
3293 1.3843114325088859 -0.9441552729598738 1.0350462333640251
3254 -0.9115640489544711 -1.4779841659968902 -1.3475374884459226
3295 -0.45985936976269604 -2.1010188849212796 2.1451497045035044
3260 0.8066862167921477 0.02411793630361482 0.736359478775035
3297 2.917458410675334 4.807801117963994 1.7185707815380153
3258 -1.8917397921412258 -5.986909046809647 -0.5758554007327812
3299 0.8987095944470731 -3.120567251835251 -0.5288350459506719
3262 -2.341071979026492 -3.4164867662457583 -1.15375651820839
3264 1.5310104012376156 1.3957938381796562 0.47563630592848444
3301 1.9419070783096328 -1.250734162809105 -1.7711112326103482
3303 -2.265261120981578 0.6180221375425167 -2.3487485627808677
3266 2.595237952569868 3.8875753456222535 -0.6132807282132993
3268 -0.46876629326203045 0.15094127761752302 -3.188164865809585
3305 0.7182797472948794 2.2842181860339745 -0.21399800076559547
3307 -1.2237830950757405 -0.8973493613220379 1.5965535662722194
3270 -2.819950416036115 4.987511224706828 -0.2865382672094022
3272 -0.3904175062027511 1.092408486941149 3.7666481212650886
3309 1.8274316298668138 -0.5628346623175731 1.6868962970856023
3311 -1.8080321292861274 -1.643741826032592 0.6936286331005368
3274 -4.766494362520405 -2.4520967542773726 1.771530905445472
3276 -4.718944966892276 4.38162027049146 2.999269143034455
3313 1.1642462867169903 3.985880522436146 4.468655739550837
3315 -2.7267313654058714 5.492492156351077 1.405474427384332
3278 1.2721399306684205 5.969015496929531 -0.20239193236163502
3280 2.0929425119987344 -1.0083577026851807 -3.358379605735759
3317 -4.621018205408387 0.6559790956542442 2.6527448426509963
3319 -1.0805077247655814 0.8917334277887837 -1.5826441710288712
3282 -0.4146519294754206 -0.20661668843411485 2.8175232762588815
3284 -1.5260649984089636 -0.9342026983972257 2.69307769996662
3321 2.0171787585058287 1.8686992581598976 -0.63087442324155
3323 4.028630389404673 -0.9162969346257318 1.4540966310067325
3288 0.3200021570378708 -0.4891991942887518 1.9454750828650487
3325 -0.7906204506080237 6.5946011001326585 -4.16780017986694
3286 2.1775652978181776 1.1687520868440924 -1.1604510737901694
3327 -1.261618540447101 0.270239352041726 -1.272509261957532
3292 10.379921639378942 -0.0075105732270269445 -0.7510247235080266
3329 -2.628093801921523 1.2133873273987787 -3.2353544344298357
3290 2.1346365361732795 -2.7515986301576834 -1.595859319782727
3331 -0.44632763565922545 0.8062889449564455 -0.6484731319984742
3296 -0.300007339148393 0.8905131014801719 2.2247112026892384
3333 1.122349153511867 2.21438112044976 -0.19464882057876032
3294 -0.5484291785626628 -1.8770448103414492 0.18200181510908925
3335 -0.36265117991835516 -7.3294208393339675 -2.368259321290606
3300 -1.9601481209459644 4.114431354561097 -0.21961386684233034
3337 5.301700328642163 4.027210879948308 -1.223152772359374
3298 -0.28788809188884634 -1.080457627555781 2.2889352376708882
3339 5.6605006479788145 4.721185999386206 0.14929922979727062
3302 -4.130209325281107 0.1013074422255243 -3.0840073117522047
3304 4.403177382256636 0.02512287333719837 0.7687183593437117
3341 0.4275443465808925 0.8253048268648537 1.6017101163827265
3343 1.7438933639456007 -2.5132880205777117 2.182308119458273
3306 4.917698949249924 -2.6114524535523955 1.1131844667969284
3308 -3.1764568818268457 -5.564849785922792 -4.860957083776121
3345 0.9897255474466938 -2.7691688968520167 -0.8151059692027891
3347 0.02812706673487767 1.1578612424024761 -1.9964171312618584
3310 0.6845122002601295 6.81344041655564 -1.7160094419405123
3312 -4.803208437896069 -2.6343856643763255 5.390206812854435
3349 -4.096833082647125 -3.246545038544992 0.9247066612058622
3351 2.093719792177196 -0.36162852531665995 -0.9545385905629189
3314 -3.438884239702502 3.3151275909768048 -1.879475567444719
3316 -1.025509719245869 -2.1410228168318266 2.6868824617229516
3353 -2.697354520903806 1.253317242255669 -3.1151720037912805
3355 -0.5039828893375364 -0.3622546141365609 1.5133473214535214
3318 0.0009697627275632576 -0.04421646575244177 1.2542585319697341
3320 1.8178049512307242 1.3484577798101054 0.7859424647866867
3357 -3.3957688419506624 -1.9258317236133755 -0.8738549069344954
3359 2.36348084708131 -0.15502102515527846 -2.604050883186219
3322 2.287622881156286 -3.1697514655911516 -2.146910353813461
3324 -4.746341642611074 5.350357884098093 -0.330173982854924
3361 1.1202477129444341 1.8643957663309771 -2.584644912927103
3363 -0.41903065764978714 0.5413108205383487 -0.04193647728749052
3328 -2.9019352476207434 4.664835912031802 -0.3194521563174579
3365 -2.2462304342230546 3.3923098499481186 -4.179813233187021
3326 -3.8184182655820442 2.7918953781682045 4.383800840263155
3367 2.136863977453445 1.638684568588151 2.891708946006558
3332 0.7482807340550157 1.9713827828622446 -1.3189541343029778
3369 1.494916533857803 -2.720032298076331 2.385679811791991
3330 0.6068563913318837 4.982171285984961 0.8914000283322101
3371 -0.20640565650186535 -1.332014393868009 -3.038926876141601
3336 1.5417890904185323 1.9661005406012677 -2.542746825273591
3373 -0.7757503969377635 -2.3369305837920398 -0.07521599396975241
3334 0.4695359711472225 6.152833078211816 -0.11755335983829825
3375 -1.2887033626707893 1.890916873172133 -0.40347483485600677
3340 -2.5030876106691613 2.6545315918851804 0.19145653810375685
3377 -0.338579645011715 1.757447430162736 1.341506534879817
3338 -4.045137142624808 -0.5016593658064761 0.07011601876975326
3379 -2.2103299690692055 1.0315187346961252 -1.5326952813074934
3342 -0.9960582499591917 3.4981837820708686 -0.016948788979112003
3344 -2.722589341018125 1.546440683999681 7.1553240124779744
3381 -5.013516610830752 -1.0910818585172344 4.487457039538379
3383 4.796598195461865 -6.62144878706109 3.5870449813118572
3346 -0.631805531190605 -1.5916389128948845 2.829288434969661
3348 3.0252937415580377 3.1399702007678845 2.589238117296656
3385 0.9361768823574911 -2.815568318622764 -1.4828622633120454
3387 2.9262205989224825 0.7924967421750859 2.583566979757663
3350 0.8183335353569748 -0.8799926397219783 2.1251915235972705
3352 1.0504217658138206 -2.801793728647746 -1.0726601322992688
3389 -0.6120188172773284 -4.393129477547669 1.7314768513616288
3391 -0.3907027057976881 -2.9876653939882893 -2.060209601070165
3354 -0.5056226826567553 -3.2366697615052633 5.840657749488764
3356 1.7230266143010042 3.0351063635244855 2.941223367617951
3393 -5.870097129187977 -2.081482845733258 -1.0459063221435128
3395 -0.511485709988797 -0.5853494167748071 2.3726313098062217
3358 7.427125640996368 0.8201663079371037 3.9727860819305736
3360 -3.698650973316487 -1.8877851100499459 -2.083417275203108
3397 2.5653046267354487 -0.6920747943993777 -1.1738212365732386
3399 2.3621903430508318 -1.27686479045876 -1.0449884208199505
3362 -0.8582397222658471 2.0966310727848145 -3.150909772080275
3364 -1.5212439893296197 1.8349485817301865 2.106222955996627
3401 -5.423401594491324 3.0910636875792723 2.7690422428860546
3402 -4.125426961108129 0.39734265014433046 -3.653695190284539
3403 -2.739455255923528 0.8811320748675324 0.2180097706689072
3404 -1.9279236021937767 -0.6356530782326909 -2.750716688719586
3368 3.8506964259222265 -2.579437733160378 0.06282808897830643
3405 1.3462878164419112 -1.9782692841766005 -3.7233503416867615
3408 -0.11278019635216369 1.8296958033796584 0.5103787090195689
3366 0.4565647262384655 1.2509898991634287 -2.176456980846792
3406 2.0885337863902937 2.203191473086552 -1.313580796791643
3407 -9.324669173948125 0.2880072732677679 1.9595711710086419
3372 -2.8580989906453165 2.3762737305791153 3.0450339970319664
3409 -0.7896528480647403 -4.352453912005499 -4.136607495980396
3412 -0.4466215821147172 1.333788854255703 -3.9478575018834725
3370 0.405175815845966 2.2106285872741513 -3.2997167548460946
3410 2.2364750737455275 -1.095194510225274 0.5554773728242283
3411 -0.03331118184495548 3.252625232538646 -3.3238087506708913
3376 -2.4588754005396503 -1.169011948757338 0.8521882028531151
3413 -1.9624586957836478 1.1869360128580195 4.105971407139672
3416 2.9222005096246577 1.3945067429892912 4.103661734341817
3374 0.6363240377257235 -3.889601486014778 -1.6602225666772032
3414 2.9405747864780705 -1.2282275516794432 -1.4695028796882526
3415 4.424136587827791 -0.4529785995602912 -1.9694762275789033
3380 1.9452573900849195 -0.917390802023622 4.449084127847376
3417 -1.3226886670763334 -0.9821441035238382 -1.8593896417009825
3420 3.2304673129477903 -3.5307177248471424 0.07194103342677001
3378 -2.529922674126325 2.996622435942129 0.05891376361340088
3418 3.098893834133956 -4.141169181526497 -2.082377870614766
3419 -1.4884282131874478 4.628879319647143 -1.0312298525760308
3382 0.8668429470805276 2.840875098895928 -1.8692281070422596
3384 3.5048282305188847 -5.724193869380063 -2.0822442669282992
3421 0.5300493900865716 0.5395815955089633 -3.6662914909017488
3422 -0.8658638055839948 2.429131570511671 1.724804158303585
3423 -4.908658552369149 -5.005410912318942 -1.754747755995307
3424 3.7450852471953007 1.2286514322133963 0.7819232819687374
3386 5.6978428676760124 -0.0005921401027946464 2.1150367759728694
3388 -0.9351688351387697 2.146725917031969 -1.9240796899064645
3425 -0.5430615519334463 3.7166816805013863 -4.255594031666847
3426 -2.978304835929754 3.463707690788799 0.27699300698074864
3427 -4.199344040802955 -2.962927149374577 -2.524090064078594
3428 -3.9863976310888045 -4.179525541789107 3.0033199318504336
3390 0.982689509261868 3.136253258121494 -0.009646371580801266
3392 -2.9977170412548104 1.7616537004537625 -1.4298360350316817
3429 -0.8009229456673973 1.4161924870208167 0.3388939409407957
3430 -0.10002417753391743 0.1825674957004987 0.3494582041664431
3431 -1.2860651832652568 -5.53967650758804 -6.887695611411713
3432 -1.284159883637398 1.7440515107190329 4.8493476670532445
3394 -0.30074388076993136 2.0867262293797024 -0.9314465887368764
3396 0.4160718840066343 -5.284374294993246 0.672438473974983
3433 0.39352586387364913 -1.847676317754439 0.527900417970483
3434 1.4807476200041676 -3.6741196297451064 1.4814288791202035
3435 0.41914732552432593 -2.8595572978795865 2.5155329391454866
3436 -2.974171948778622 0.8311083004320653 -2.665907028923448
3398 -0.44470863169094044 -0.08813880425766242 -5.420840066062337
3400 1.592614143127774 0.8397668018145329 5.2899600005803435
3437 3.7194964503431325 -4.947077321370127 0.14435342850318736
3438 -0.5269404480478017 -2.503090415985028 -1.4643198422273034
3439 -1.1375737698662685 -1.0105746711349346 4.486325602364852
3440 -1.7497534298899162 0.8695869885565287 -2.4611914445824503
3441 0.6559589100676577 3.356153408783869 0.6241159376093868
3442 1.8774783233537964 -2.869874581521308 3.5512496579699353
3443 -0.060882616980814236 -1.6150777551282656 5.752123202968358
3444 0.1836374413349402 4.896199810457878 0.7579803560722093
3445 -0.8921135332931344 -4.415745274237716 1.4056111612916653
3448 0.9209002737707872 -1.2576595684719438 0.10416517738622051
3446 -0.9391347720380759 1.6510269906212232 -2.548118352998038
3447 3.660488292857135 0.3226581102925732 0.7707026024420516
3449 -0.5693245972962722 -0.9197066437011524 0.0846477123427435
3452 0.29281369003641977 -2.2749383679442685 -0.6641691653047188
3450 -6.1918013139601085 1.0947436705523381 -0.30733831045925714
3451 -2.633214349507056 -1.753999867895506 -3.7262950582978847
3453 0.8965789977668662 -1.3523894090683761 -2.865517208944642
3456 -1.3549201745378066 0.7176704212395434 -0.27291108900878325
3454 -1.423278332047519 -1.0154851296536012 -0.21457810587600906
3455 2.88209066450149 -1.1072425392880345 -1.9720152972270582
3457 1.4377798427863862 -2.457330532286845 3.111298304214562
3460 1.8048946605532679 -6.984237948654621 -4.407073429962677
3458 1.2365096239461497 -0.6558462402225053 -9.15135873735748
3459 -2.708585462672264 -8.466268565074847 -3.497919827405264
3461 -1.566363092288438 -0.17999875739160281 4.675164663322414
3462 -6.305125821114313 2.2019219080659025 -0.2981113984530164
3463 -1.6992249528663752 -0.21705085474279548 -1.3928645815011043
3464 0.4413996001633666 -3.597628974851361 2.3875864572403747
3465 1.453642010384731 1.5115597635702458 -0.2875544498508971
3466 2.9314308795491693 0.1809886998842568 -1.6758540606277996
3467 1.7025432815058523 0.974604351082913 2.144317822114991
3468 0.6019751447839268 3.459720846107815 -3.1137335059228843
3469 -0.47485238246427425 -1.1941245433810994 -0.5004499923390249
3470 0.2948728898808682 1.4341225914932465 1.0014111644781927
3471 -2.4991940558585797 -0.6855754925340478 -1.1611729322916235
3472 -4.347715426045006 -0.7289657954033295 -1.210185960127432
3473 -4.060307746128139 1.9071249222012316 2.5676488011496548
3474 -1.2339361589753035 -1.7324427155768534 2.384920266811343
3475 -1.4389628478158114 -4.967981072965134 2.010646567253604
3476 -2.0265029707027806 -4.307613872148193 -3.5914512894200263
3477 -1.4991001632618834 -3.560781623489187 2.2981124060373816
3478 -2.4862525058138676 1.3508248068103499 -0.2502248175985761
3479 -3.5954894035519334 0.652772677180797 0.23893350652781847
3480 -1.1003331403628829 1.3231214656716177 2.3232430716721497
3481 -2.408652466496179 3.068490155902646 1.2129557351023776
3482 -2.494324903195423 -4.178367707226409 1.975534681605446
3483 -4.224459809663363 1.683349098648625 3.2955803841430247
3484 -1.8814637612317637 2.1061361989437035 -0.3658710621879054
3485 -0.297095885401501 -1.5112944367748178 3.427544772478564
3488 1.6647093035838858 -1.5547714868198093 2.0941840770273594
3486 -1.8077146991110258 1.5086352783383334 3.056584380006838
3487 -1.6351369314792354 0.02151078969377196 -0.2079436710764785
3489 -3.012522704656522 3.4015036365774014 3.9666340291063724
3492 -3.4360411638417623 1.7268394961968154 2.856794565657261
3490 3.9465509923782167 5.819916751186657 1.4912097232438197
3491 0.8309032889898496 -0.3861429899711904 -3.4806869804593066
3493 -0.19927100227452238 2.9292845292749523 1.6684284109871934
3496 -3.888242674286036 0.4160847580374947 2.414529679556276
3494 -2.1430462453815564 2.2172804543975775 1.1377658730407996
3495 -0.9603664847781486 -2.195744116262517 -3.2763811248554218
3497 0.3838699965916396 -0.8720175685475758 -2.9036318924832982
3500 2.2682574850542023 -5.591626432026372 -1.2498294638735825
3498 -1.6484037482633478 0.8474761995933991 -0.3176398900747465
3499 5.444313527738591 -1.214112591467681 -3.339853580129705
3501 2.040838030270323 -2.548378818618132 -5.720809118920289
3502 -0.4052288426763056 -0.2546471249422776 -1.8051480267316808
3503 -4.02813332812279 1.7206820333464352 1.7257691588807516
3504 0.19493863498105185 0.13135213048499786 -1.6396553004105503
3505 -1.4782129086009737 0.24797326800834302 -3.8652261733033897
3506 1.9328992166297267 -0.30218720228713825 -2.677557076688525
3507 0.5736561681774204 -0.31041147204972314 -3.0626926445894345
3508 0.09568623407896865 4.356341863403371 -0.32451439770220947
3509 0.5500969138847577 -5.151276525226897 -0.042410651436828435
3510 5.554408447103625 2.8099675300470746 0.35620121364407936
3511 2.0954116828588454 -2.2634797696562896 -1.0321046414407253
3512 -1.8185390981578713 -1.9872972150902048 -3.793157951427205
3513 5.402080764442873 1.6721394176596758 5.442129490137564
3514 2.7575768982168007 0.38289588816533016 -1.6258976995668593
3515 -1.2683539057524396 2.092479726086155 -0.7751997566236554
3516 1.9860135577241278 2.304161090770034 0.09465592124838118
3517 -1.4953778571556788 -0.36605212416643607 2.08612196933506
3518 -2.740683648288628 6.0063482588394415 3.995159531074415
3519 5.114840139784286 -1.0810328705454548 -3.3087767509019406
3520 2.326202355484121 0.3851941912595106 1.9484371724952843
3521 -1.0807995003232074 -1.3921887535518556 -0.3867877368875537
3522 1.0520110528425297 0.3515921592170487 -0.6155722275623866
3523 1.6018290048196009 -0.6134528647580849 1.8301036417635177
3524 -1.484532886702171 0.5788865795950631 1.0680785744325445
3525 -0.24899820873995845 2.4228340922661045 -0.6410323308636199
3528 1.2298249595976594 -0.9174397649766098 2.205350143987462
3526 1.261443304546585 4.338970805976096 -4.734741600990557
3527 2.938379926479948 -0.07169163329073018 -3.880812649384134
3529 1.0543150732366475 1.3894852079104987 1.9881815990279452
3532 3.3437837634720005 -1.1541550981602149 -1.0681752719831354
3530 -0.8282299524237791 -1.3263717035435139 -0.049707099782356726
3531 -0.9146961636689086 1.4589524437200552 4.842117586211887
3533 -0.5058220413717941 -1.6697220571772695 2.8372696711477357
3536 4.3894178764686576 0.7962000426143063 -3.6061550777667493
3534 1.1281010078325426 3.368155726617023 -2.977416367145186
3535 -2.436501952407571 1.6099901422632785 0.2791833686822815
3537 6.582246185859317 -5.383754129449956 1.9881047904909577
3540 -3.0478809334888486 1.1758314379969104 -2.896970870801008
3538 -5.51794100072219 -1.3303818580237852 0.027317391078355888
3539 -0.8305163732939924 2.488029547042366 -5.143998766074913
3541 -0.784588547310333 4.793084530030684 -3.4725923036015
3542 -2.1830471231648727 0.6654621686698716 -2.0309794307068976
3543 -1.9210899721280204 -2.471193050223947 -4.876198212503035
3544 -2.5819268446262926 -1.1079119493216587 -1.1607551272412995
3545 -3.4038036406100596 -1.4382145810185736 3.9575315141234366
3546 0.065565778840486 -3.068331539925025 -1.3118073698426995
3547 4.37159039779863 1.9731217256397826 -5.180705024703782
3548 3.290556207934882 -3.9393736903770025 0.5685108681597828
3549 2.7533937924064293 2.3133941124365287 -4.2584933667393905
3550 -3.5643765277787334 1.7117408747824925 1.0676279581026982
3551 -2.2804065148325283 -5.647708009341504 -0.9865971998413152
3552 -4.981040323919285 3.4112341838118803 -4.1519838510978815
3553 -5.1475908207122085 1.426853042851342 -1.3983762062964038
3554 1.2814872100609065 1.7509931524451172 0.13555618666925334
3555 2.9458223775609347 -1.8033980457744239 -6.170171274150387
3556 -3.4442924151958003 2.5377749078240748 1.6614130591772311
3557 1.7651588868647916 -2.0202200418727414 3.7735915853947706
3558 1.3060661844192964 -0.6085937553580392 -4.311139444277363
3559 1.9825203706707304 -0.3572231669503426 1.026285128166849
3560 -0.009262227574720987 1.1536769599239418 0.4447853084495904
3561 -4.590581459903142 -2.633367680246756 0.4731582460538886
3562 -2.3138330453481037 0.8293504134270071 0.7003475287517247
3563 0.6438615696809412 0.13762528027903878 2.0522893248258818
3564 -4.243954667769428 -1.024340837232569 1.28119170332766
3565 2.378417561471045 -1.1054909327967082 3.2254381797578846
3568 -1.5232377049686265 0.28770993527376243 -2.5831412919248042
3566 1.0857195118477747 1.972576144956706 -1.0812115727392972
3567 3.0317146770280643 0.050283751264817766 -2.0882109039018526
3569 -1.6543176874041763 -0.35459371948611645 -3.3799123644936975
3572 5.0488180308066894 -3.816319175225362 -1.5482770171413838
3570 6.460445906478357 -2.209898833476065 -0.5007625603683478
3571 1.2240805805421267 0.41086323782944495 -3.5069462431841605
3573 0.6052452396007421 -0.0035806650169165773 -1.6332264350218682
3576 3.1548920903012165 1.873405854380319 1.2554257325836504
3574 -1.302787084436732 3.2089120789270975 -0.41898706436647354
3575 -1.721824096094761 1.7977439430547417 1.7026426209931542
3577 1.4173608236398292 -1.4472530684818659 1.7373040986431856
3580 1.7661857186502514 -3.6648931523570485 -0.0277815638329471
3578 0.3323106122647705 -2.625486898062714 2.6398660624935397
3579 1.7649257635202862 -2.208248601281612 -0.6797491493202615
3581 -5.588099588299079 -0.3833545980082087 -2.070904672298221
3582 -2.069555380297449 -3.3304103859397065 4.119604818122198
3583 0.0768044613259061 2.852342248582048 -1.2050294159601624
3584 3.6565355109366355 -2.7760872762055486 -2.852739541447181
3585 4.610154983971621 1.1731518815501236 -1.224783296163561
3586 2.7329612686817533 1.6897630741766927 -0.8050484883470422
3587 2.04299079212256 3.8714634186111176 2.098793155042914
3588 -5.422655700107747 2.104045583228054 -2.2058561162585235
3589 1.2073937299560489 -3.652324028998856 0.4669875402051226
3590 -0.6289743451419288 1.2905974436402452 -0.48834417540652514
3591 0.249417123188335 -4.679620413516613 0.5162025530222057
3592 -0.8849184703649995 -1.552510129231481 3.3750190000856763
3593 -6.04825173434319 1.0368220443883547 1.302002855354012
3594 -1.0870800340827749 3.0842914374073844 3.6067793793521576
3595 1.9389541543879354 -6.940454452310406 2.8126444386195733
3596 1.5978595759231335 -2.2668732908548344 -1.915092669952366
3597 0.6431636334032071 -2.2827974301616307 0.0912688360418994
3598 0.10983356560980477 0.11038715042752577 1.9613752355160416
3599 -4.569094657559346 2.976606399862094 2.6489127568783584
3600 -0.44743324686000063 -2.333064863475423 -2.2466098060829434
3601 -5.107333072365205 -1.969213196833587 -2.117816625225485
3602 -0.9790548188808047 -3.6347741435049197 3.355332390910426
3603 3.671594067423379 -1.599672634123789 -1.7695499312001157
3604 1.51218937248559 0.3083027737451983 1.6951339075324057
3641 -3.1140367691039152 2.007302886875593 5.371666966852662
3643 3.0409429305724456 1.2083137002947686 3.679213687376128
3605 -3.888363997050526 0.2165779633444755 -1.3676663859137352
3608 0.40557158773036517 -0.05358491518377152 1.07395993891326
3645 3.115334205772632 1.480281629253994 -4.246498766217229
3606 1.014997279973166 0.847174486210717 -2.8646617196724597
3607 -0.1407126659663193 0.7236532707951897 3.477773380487588
3647 2.311322680760474 -1.1558113328307122 2.402101054120309
3609 0.16106193411128794 -5.281402506220809 3.7893102074434553
3612 -1.389539499175156 -0.756021937365468 2.61128678720459
3649 -0.6546035112094194 0.2738978016327766 3.9356296397367374
3610 -2.1388631899973842 0.9958501645716674 1.0108165889054865
3611 -3.9999249911289527 -1.070427717848101 -0.41196465641861885
3651 2.184014007860052 1.6192375408454218 3.8380068922204917
3613 -0.8803232895374353 -1.7372270360432482 0.38725361361095256
3616 0.8438167022398537 3.510031468811441 -6.151627727769831
3653 0.5977153408247491 -4.834061702814128 1.2066549636192405
3614 0.9089392098279253 -1.138039288335408 1.708497163839688
3615 -0.26189218243127277 -0.7836745687895659 -3.7896220262509583
3655 -2.8440621435256226 -1.9402338616459056 0.05656102010976616
3617 4.3427471188436 1.2263274675375542 -1.9547892695414635
3620 -1.6370771367765238 4.084776123853499 4.989847964473526
3657 0.4132197361305759 0.11436232870311569 -2.113715558470252
3618 -1.0779403958199616 0.5641077440017832 2.675486799850078
3619 5.482782354295537 1.0002237837094379 0.08565954342500798
3659 -5.631770538413895 2.557328094999839 -3.633336305016617
3621 0.08954320473272014 -3.979257388672419 -1.6498721527954
3622 0.8007649271127173 3.400100377033327 -3.1749289992344223
3623 2.184660918207201 0.9446422906013894 -0.33608437848924305
3624 -0.7894693562398899 0.7882739504096489 -1.4630528970193384
3661 -1.2217089136325985 -1.6942145519448382 0.2214998005270193
3663 -1.9937604065287586 2.5082498186017412 -1.7572809370195666
3625 3.2397969295853577 2.641478592953131 -0.15036831279501164
3626 1.5410464400812525 -0.5366840721550478 2.738452318900074
3627 1.5991782231698393 0.6767064524464423 0.3419344791203306
3628 2.735401379676521 2.7242921000688196 -2.1967943380567903
3665 3.57420279579927 1.73880754665127 4.747589619308193
3667 -1.0002453883331521 3.008725151583598 -1.1160562542594423
3629 -2.6357295942657406 -1.5015890820263542 -0.6563406783192564
3630 1.8770866426943016 0.5169501688077628 0.1404135541958934
3631 1.8047292156701884 4.568573183268972 -1.652499492955143
3632 2.7378967844818125 -2.203348119207462 0.12701555368865114
3669 0.9054520789699537 3.2756122479897405 1.5308684540741462
3671 -1.9014893389046836 1.1489590450524605 1.661178476566083
3633 1.1325487750488017 -1.8963563877337397 0.8966573924044791
3634 -0.3598101374301383 1.821649588437247 -0.6242634884576621
3635 -0.7270298422580653 -0.12034072286116564 -5.7068800381931215
3636 0.6600370063149021 2.128391066072858 0.6627129224611954
3673 -1.3928249267709205 0.5937888676769263 -3.4209787466198858
3675 2.9469551878828137 -1.14213910648255 -4.47640085172764
3637 0.7783679770652144 2.5858052352085705 0.35222426886343927
3638 -3.3558536586152043 -1.2524420254428146 -0.3735535515506608
3639 -0.1621874478536485 3.2063858501411326 0.09934819807547225
3640 -2.395455425230656 0.07388100770073609 0.7644651603566537
3677 -2.1553798654197 -1.2748806692392758 -4.522850129862107
3679 -5.625385161414203 1.1680499089077734 0.5072537994459246
3642 -0.9243162778058699 -1.7718771117935568 1.9653641141854932
3644 1.5929404046637547 0.7107731280597491 1.9905708734679861
3681 3.770688368003985 1.442494933452085 -3.1367992068652515
3683 1.2558781163766077 0.33690514783066833 1.1766584149269828
3648 -2.802853196214363 0.6968741263286736 -3.664087582811551
3685 -0.8133054743634692 4.363270736536914 -0.3844803877926655
3646 3.1786731870128224 0.007820397069670056 -2.633569061619528
3687 1.8162127942483768 -0.6556590135394857 1.3121133216271712
3652 2.5535970944504833 1.383327451992665 -0.5911659600001951
3689 0.7524071199816414 -0.18895992794447555 1.204617726920945
3650 -3.921222033864377 -0.5230191848051086 -0.4733973108127132
3691 -0.8479283493807809 1.9054822381436871 -1.4989948987111918
3656 0.8945320407308058 0.26924111299677744 1.9976619548614265
3693 2.07684776852459 2.0134960542158375 2.86980423920752
3654 -1.6472278598572467 -2.917979788727259 2.274124946729218
3695 -2.4452183372996545 -0.5095696861487313 -4.416376295910462
3660 -1.2461935333482397 1.7686753332871332 -4.635525518265859
3697 1.3916144264959942 0.19583243910967527 -2.37683743612328
3658 -0.1159585550356728 -0.15360405414870526 -2.1279326520000605
3699 -0.367221710310447 -2.4273772396766398 0.008693324345143806
3662 5.991800544931774 -2.7243522094212644 -0.7699977035427775
3664 -5.6020456952125235 1.3487640773391814 -0.965025719163182
3701 0.6032738926283034 1.8713835821852993 3.6469911368755215
3703 -3.0682892903622125 -2.683906607052817 2.124225180059294
3666 -1.1675951923303434 3.627377585666438 2.4388464979776767
3668 0.09259584962373181 -1.854107856780262 5.364847287968298
3705 -0.8080694678432943 -0.5336082449312218 -3.8111070789723165
3707 -6.226600094673797 4.9534973169101795 -1.7152670425285965
3670 -0.10234308794342128 -2.2954816902591446 2.711462354562834
3672 1.5621560953003237 -2.052068782443531 2.570750935806371
3709 -0.17007588816495633 -4.450765183010616 3.0706163050573347
3711 -1.2000895792934776 -1.1689640787849271 -0.2466031291807429
3674 -1.034867245441404 4.45544921259384 4.755191006158577
3676 -2.1121798348702265 -0.15380571724975875 -7.0359675631498915
3713 0.9634720954450812 0.055506537222985285 -0.020694973436044563
3715 -0.16487170667013448 0.17543508327684945 2.207896906642442
3678 1.9321808466888082 4.453292671935619 1.0785868731743788
3680 1.2949596209715255 -4.219631210611705 -4.00706425494689
3717 1.8874512296966373 -2.843661053640924 -2.8446761949351065
3719 4.226707069693012 -0.48616677336237996 -1.2532116844577526
3682 -3.0868722096515704 -1.5695221685338765 1.6759212846865164
3684 -8.048600330901937 0.3179106800991336 -6.154639659502694
3721 -0.2911778924585873 5.973858242091175 -2.185362047264159
3723 -0.43859297931889446 -0.46733258312637505 0.16303217226109412
3688 1.279199200030111 3.692361585765133 -3.3826669030999557
3725 -1.3581631259477969 1.1598219102758138 -4.0903033281488
3686 1.1892048641577235 2.2353845011282276 5.223602470235817
3727 3.897484634494883 -0.9925817396957962 -2.1935010954474263
3692 0.022999368982820956 -0.08259671473220663 -1.7636479772402152
3729 0.6480279162210547 -4.736919635532375 -0.9082937929835179
3690 -3.1474696255716164 1.9270011940885035 -6.362231855938831
3731 3.590860340166034 -5.53849700421187 2.3061808375397077
3696 -3.054062700281375 -0.32526739223648016 -4.937388401783446
3733 -0.20683522411618718 -0.08489369347880289 1.487712776070239
3694 3.39455120667336 4.541804660531323 -0.9901864341285364
3735 -1.9174632544695824 -2.1112012115521113 0.7115859996352697
3700 3.8635070700720067 5.0544162728455495 -1.3498349598162291
3737 4.470419604922749 -3.1984941595958687 1.0860067728488936
3698 -1.1734082549693796 3.6899475514707945 -0.7708847706582681
3739 2.601428986857091 -1.4880840363989596 3.48750673565349
3702 0.4954209338344711 1.0200394819014569 4.180856643286247
3704 2.546093403743419 -1.1053326818207017 0.46634143486978963
3741 -1.4558262981936323 -0.4719364806764522 7.459151637685308
3743 -0.987283667207256 0.6415343810754189 5.445687965720548
3706 -1.9375786718119823 2.2500250954190912 -0.405442177666031
3708 -0.6446928040304616 -3.235939606190733 2.831081640339431
3745 -2.432397414956073 1.0276484839157702 1.107611362234245
3747 -3.2744397223898107 0.3819824120312226 2.6594346788425356
3710 0.603648115822953 -2.4222461324032842 1.9037108082245189
3712 -1.3733733037257547 -1.545396255396523 -3.1352851537380255
3749 0.735320299326927 -1.077926624987962 3.14301799032436
3751 -1.7205745887628277 -0.2307507244158023 -0.228188564087846
3714 -1.0957733418462101 -0.19444376742393527 3.721394628093385
3716 -3.9793002910158393 0.03851386615934565 5.697439895385128
3753 -0.7320128680683241 0.069510784111601 0.6087275572870745
3755 -2.780346802364994 -3.2015599212225174 -3.409307725751533
3718 -1.215570080099615 -0.31737358019059336 2.50206507103638
3720 1.904872477913614 -1.34741833784347 -0.18591911840667114
3757 0.1942817884494731 1.9035037900729803 1.5788321981995324
3759 2.4612516003279565 3.451748318953308 -0.8001219641307111
3722 0.20363176078824333 -0.9855961469856446 2.433771591081285
3724 -0.8851605025995509 -6.528436066138141 -1.4710355657677225
3761 1.1239245160251026 0.28595026056423284 0.35319153558176125
3763 -0.8127143077082106 -3.2672409739482955 0.930210576703876
3728 -1.9046350985437113 -0.002639213511734238 1.7810331793156093
3765 -0.8716018613413203 -0.499399631827082 -2.499174777641735
3726 -1.148579890092892 0.44185934484862927 6.824775847997005
3767 1.3109658938840039 -4.984451504448821 3.5893692171190312
3732 5.018752684075485 -1.0917982282941214 2.165428894598849
3769 -0.5611156112587092 -2.941353997981412 -0.8557181096619231
3730 -3.852599114528168 -1.9056449015924866 -0.4224770973395814
3771 -2.950226619113281 2.8488988123221994 2.013578987801677
3736 -3.038539493843115 -0.008179112709170025 -0.1461581507759904
3773 -1.2655274409218509 3.514893955982225 0.43993157227614543
3734 -0.9896248400528754 2.679328489784533 -0.26181404951742143
3775 1.097441989420832 -0.7876606142251324 1.6776279196909187
3740 2.2486973788861744 6.196229763199192 0.13970571029903447
3777 -1.1916330186752555 4.694438057713171 0.5140192464377248
3738 0.8753374568949666 0.9278513329962224 -1.6148984965781703
3779 -5.045777664505371 -0.34954799211288606 1.3726815495060598
3742 -3.5819992742485898 5.638300007898809 1.3772355443286162
3744 1.2422898315271704 3.8711482683270444 -2.9573731301136017
3781 2.1198454509306326 2.134732210811892 3.0911394350042265
3783 -1.2610417466684278 0.2063878870911277 -0.7721428558107237
3746 -0.918699202602465 3.461826071655189 2.4207039039164715
3748 2.5796297693853303 3.185110982463709 -0.4027811645325601
3785 2.484505747999121 -0.6171533930844643 0.982646051560866
3787 1.512758713642241 3.1004517930883138 -1.9044104524059002
3750 -0.8306870961915938 0.8204249333150768 -3.718531830718732
3752 5.750405422318216 -0.016829006128320667 1.523050695154635
3789 -3.00352713639066 0.24111040542882306 2.561793801460563
3791 2.2517366310476516 -0.2545570206498811 -0.7604165348749214
3754 -3.237299360451637 -4.317582958574569 1.4873161032936317
3756 5.780373576312229 -1.4953189200740475 -0.3095162791604122
3793 0.9500240128539127 -0.7676722991966769 6.106735355292312
3795 -1.4854762091152025 0.033518423150444746 -0.6320433260162002
3758 4.68033759736176 -1.7533847785954877 0.9949318682593675
3760 -5.085792476439649 3.863716489348306 2.2280575125475828
3797 -3.7984511165646926 4.614298926081956 1.7595719790189321
3799 4.748507056379931 1.766764077318461 0.4491976171260598
3762 1.7782171944788692 -0.12231221641977025 3.5843095752492946
3764 1.765057849211444 -2.314506867381705 1.271647618460965
3801 -1.3382211838828444 4.965662775677031 3.840963485018957
3802 -1.3537550395795752 3.4550287943797886 -0.615197686274419
3803 -1.0244251078147995 3.1745398898415 4.546569854724552
3804 3.353750159434689 6.942750889279198 1.185002822205031
3768 -2.6403196267824023 -0.7823063276217551 1.4256520555355523
3805 -6.683587629734933 -0.8582064611418793 3.6076735912945654
3808 0.9614344719203632 -0.969998476415928 2.9939157981664346
3766 3.1328515699895805 -2.8756405855198284 -4.91004946763447
3806 1.4600604329969538 2.8070000678957907 -1.5753295093734858
3807 3.104098553773715 2.037669332248304 1.6604962684752078
3772 -5.592481000255206 -3.6230014942332085 -2.3652450131016556
3809 0.18463945972478973 2.036303931075719 2.7063150208900737
3812 3.174871216438521 1.2895367628615173 -1.995107748690332
3770 -4.541942820961278 -3.550292558193043 -2.4331930057784072
3810 -1.2785813083867195 3.677730559558752 -0.8569568600246996
3811 1.217229284889963 -0.7496486127358925 1.9645090484323149
3776 -3.148126544233451 2.1508202743474176 4.077698816045519
3813 -1.5726503990984673 -1.032929405520314 1.8273661400150079
3816 -0.995729865171557 4.774457048384241 0.1562095388180345
3774 -2.8372868048907534 1.7259650142919336 -0.9402902652545966
3814 1.9710050040399332 -4.688175627795782 4.877435705000624
3815 -1.105491021782011 -0.19014650874084488 4.350487687453094
3780 -0.7879359291964811 2.019637415098296 1.1161302462534006
3817 -1.572892640880616 -3.431715866087627 2.470526922344679
3820 0.7825771430987519 -2.522412369433272 -3.376503503464073
3778 1.4555715567838627 -0.060503670049510884 2.346831021835175
3818 -1.3101675544321327 3.5183664408944364 1.092416312960775
3819 -0.7157039686857223 1.0982251747644876 3.156015005502569
3782 2.5360773656665505 -2.966172735370064 -0.24936652180494356
3784 -1.798176398242458 0.7617654069252666 0.6252664986289297
3821 -1.526799135951955 1.8929155318336164 1.5110378403258078
3822 -0.6393699713248102 -2.605547403668367 -2.2869414451876144
3823 1.982589981847818 4.8256913923087295 -0.8792957685533469
3824 0.4039368045491615 -1.1263634057515772 -0.5493901422711615
3786 1.099124883857937 -2.2082235916400923 -0.031395509025751396
3788 -0.8904138066217361 1.6862962649175819 1.0772492412757577
3825 0.5967906979635896 -0.7798084552884734 0.6701132065296913
3826 5.623328959128322 3.0893695713252054 -4.424954025134392
3827 -1.0002832446368548 3.3287756717655905 -6.521255693140762
3828 3.4816935113153673 0.7907208498287924 -7.694662669670017
3790 1.6541760455210417 -2.699092604571942 -2.36271563046421
3792 2.740512610556486 2.652731278973594 3.7060586035808547
3829 1.837921144502714 -3.9122358319550616 -4.656645003417162
3830 2.8413479208306196 -0.10266014944785756 0.17738150128379732
3831 0.165475742777741 -0.5235561973357344 -2.6646515102990946
3832 -0.8377493930412709 -1.4377912685659007 -2.3780428183605933
3794 -2.7182168339054846 1.1066964321276667 -0.4549441579181367
3796 2.7309425174816715 -1.2425420166315828 -2.753080169771489
3833 2.0516634898748283 0.572338264484556 -3.826720756108212
3834 -1.5436741727034664 3.1992566226262587 3.8385809861238775
3835 -0.6428293342168506 -1.5694672476678015 -1.5305072056103906
3836 2.268940915139658 -1.9472449704980177 -0.24232803492361749
3798 1.3060629676972273 -2.7753615366152555 0.5360414244817615
3800 -1.2711916090291584 -1.6051884672722248 0.7116883183021424
3837 1.0924149056131305 -2.223263584158398 3.9979901243853564
3838 -2.2486967141648844 4.260564098437753 -2.3846080730633497
3839 1.0230263494528136 -2.5565023590024722 4.0552843281599
3840 -3.9904035000453333 0.7061875137994309 -0.13842403525457098
3841 1.4078736535733505 -2.314567729697515 -1.8759994994316072
3842 1.5038012784651722 0.24763456029912756 1.4082930742128423
3843 1.6803266849753515 -2.4081225819957317 1.6330997733207755
3844 4.319504641727537 -2.809276869590293 -0.10087573476685023
3845 5.519352490066105 -3.588354154963668 1.5009987650017762
3848 -0.34867164341713225 3.5147271209887285 2.338168006137571
3846 2.6950374797975103 0.40469164923623757 3.238892360698749
3847 -1.2148784781225168 2.8458011363737974 3.115690378700508
3849 -3.445037863634131 1.8432491245598384 1.9679271921300265
3852 2.4188220923375354 3.0303772384447507 -2.2538948519128135
3850 0.5566683501145738 3.2635603715262653 -0.45661416222238993
3851 0.3753419184871053 1.2704571976269967 -4.981754237449486
3853 1.210319949330431 -0.35027547600154046 0.7012481323684754
3856 -0.35802555677858666 -0.38170357568414254 -2.0309804982164024
3854 -1.9872996556972262 0.2300249120572496 1.3903282202540146
3855 2.5629164536368414 2.346827551398438 0.7944593964202809
3857 1.6060988250383244 3.5251118072216436 2.638341663807496
3860 -2.7470587331029885 1.198926233155967 1.8569317377897312
3858 -1.7231944330208093 0.8018240771643536 -2.696959507373204
3859 2.2303793500932128 -2.6549805783719487 -2.683087306257416
3861 2.87072452387447 -0.04187987089032952 -6.706400729395865
3862 1.4117655376137577 2.5961773972286197 -3.850456943421483
3863 -2.939984855552245 2.1337095729820645 -0.00944750154800452
3864 -2.817976600395663 -5.836268132069832 1.8627649318196984
3865 0.9149735724950631 0.059734829469377096 0.26849678809384725
3866 0.12802554073517067 -3.6367306688855665 4.094788008814164
3867 3.111545252704719 -0.7489647661499425 -1.753745759289405
3868 -3.7342680322447883 3.2539255050139255 -1.669993863533499
3869 -1.4194932817871853 1.0904538584535566 1.7547261255144275
3870 -0.5553740606889358 1.4687670073984025 2.39935738905478
3871 1.90705667438782 -2.5284748058057396 0.7011442334087392
3872 2.5863757629164263 3.2430921407775313 0.1497168250203368
3873 -1.8812941907657745 -0.5652480231776917 0.5114736535469584
3874 -0.931306087295794 4.5884745956943425 -0.6594262491622856
3875 -0.7899280707411195 1.006025688260942 1.2204778825101263
3876 0.9634780975531985 -0.7296263269342931 -5.977948063954713
3877 -7.300250021390762 8.493038774117503 1.6059644588401931
3878 -0.8846545736392826 -3.2503342942240625 -1.3493105158456447
3879 -1.4420373379687332 0.050735496789929134 -5.644937403370911
3880 0.8265901806621989 -2.0770553286799913 2.138054810095555
3881 -2.6887946452493696 -1.0127881574150204 4.7940168072025955
3882 -2.4912130335759404 -1.3662862050353848 -2.699421567433632
3883 0.8122113426629972 1.820134164865026 -2.856244485433681
3884 3.946658890744701 1.2823694238395944 -0.7394673262260468
3885 1.7263667062539683 0.0334615811475848 -3.9111020940103596
3888 -3.0416096900672787 0.5782999756010021 -3.8716442911769544
3886 0.7536825741073632 -1.528714666558962 3.772030909493222
3887 -2.1500506579958145 -2.3385242837543565 3.2197803298057415
3889 -0.4491218251889131 -1.2426566985844683 1.849734559412641
3892 3.882454000720372 -1.2835179270561892 1.0779012651908975
3890 4.57320080309719 -0.3206374149780184 1.5623197181295956
3891 -0.46284314118030717 3.476577800875837 -0.45294130274350053
3893 -2.498222468690073 1.4725626988250775 -2.749250313880765
3896 2.997453185923228 1.6313963137175365 -0.24302689688598153
3894 -1.9289187891905835 -0.8363369694563444 0.19638354848387035
3895 -1.238497553111594 0.1760596877289644 -1.4066884732118972
3897 2.3107670880487206 -1.5827733571574405 3.0009688295027055
3900 -1.1550848680689554 0.608164188523906 -0.9694108295364593
3898 -0.3309184074503108 2.3890033378515354 -1.7289842520639913
3899 -0.8230140865937753 -1.2908907791844302 3.7145425222166173
3901 -4.093867414709525 2.685869797280695 4.177521402190855
3902 4.090165091702544 2.9479723890594416 4.966770676763301
3903 2.159935833749922 0.3537881469797474 0.709295908677577
3904 0.9662050875394439 1.514566237447844 1.008853965387407
3905 0.8649798650139227 0.04633998307811127 -0.9355272424390009
3906 1.504311604594579 -1.6229631507112716 -5.397407273101261
3907 -0.5189582432585357 0.1691093678586253 -1.3357381406682434
3908 2.406662814529077 -0.2445168783941342 -2.51925150334419
3909 -2.2407747224237613 0.8113055657877258 -1.764779683987472
3910 0.3546113379369187 -3.5943707253257866 1.2754098597316563
3911 -2.4150666600674904 -1.0246294681823478 4.102622835223875
3912 -4.180786879258713 2.0386605810438114 -2.972604040042201
3913 2.092543854904651 -1.7253620366961504 0.041902328096500775
3914 -2.070100444945323 0.9585148138781899 6.044006304241009
3915 2.3017416579661916 -1.6066826323475139 0.756367487661009
3916 -3.4039327930638805 0.019174530142117178 -0.6589744122563506
3917 -3.592648280661628 1.250149604593124 -0.17976664475734008
3918 -6.645947207038417 -1.6061538998664875 1.7484331164247546
3919 -0.8390111458406508 -1.6887182181113978 -0.5313933470698718
3920 -4.559730227300241 -1.2452102119744306 1.708579300692434
3921 -0.8220628939404956 -1.983119370444514 2.0451296264948127
3922 -1.454091338301017 3.2034721527999364 7.383851081412136
3923 -0.5219967512050449 2.9602329757906762 0.30104199407944804
3924 -3.730069259484288 -4.4387983969472025 1.5714300224580104
3925 1.6214850189050407 -3.6264048579550927 -0.8116405141606726
3928 3.29264016125424 1.285093010989033 -0.562311634069246
3926 0.32227062035379467 1.8542670088381834 -2.456363114162067
3927 0.5383569119091947 -0.22726619498565248 -0.6424372430999558
3929 -2.867828943400453 2.8655372521953044 0.7229631408509772
3932 2.6777154191910544 -2.9153294342571803 1.8019632640826777
3930 -0.7475208299419124 1.819513901378993 2.4282659256763064
3931 -3.5027569290386906 -0.7598532370363421 -3.1045972422494406
3933 1.132911533277582 0.7117337620230829 0.07403942293379566
3936 1.2173261013335637 1.0741303338733317 -0.5215624585431797
3934 -4.331272034593696 -4.327256365802667 1.8115803921628253
3935 1.5096086153517374 -2.1411222192745076 -1.1479214495594503
3937 -3.9198193604395617 2.1356853554346404 -1.776931432004387
3940 3.6067967082356933 -2.484456606957672 1.734651805345274
3938 -1.2293027474728904 -5.087303211027889 -3.141261642549969
3939 0.702085408398027 -3.444421120388163 -0.26949204306101177
3941 1.4403999674467296 -3.238699220151462 -2.9382390468439206
3942 -1.367344819335997 1.2175763350924274 0.5134624133129432
3943 -1.1439001355940825 -4.61783670133981 2.054651643785042
3944 -3.067084402682439 -5.569654539097162 0.23351426950839277
3945 -3.434000316714223 4.753386973414109 -2.566358137526765
3946 3.7001907912784775 2.0636295820066572 -5.846505518775147
3947 1.100587405194653 0.6196760833762771 -3.8873584098714082
3948 -1.8773756374898698 5.02835983179197 1.215551885346735
3949 -0.5987858010954323 -1.6481177230938662 -1.6707248445733414
3950 0.3882667467543473 3.8294780838763454 -1.8483164350372623
3951 -0.8108085431781248 1.604526226006091 0.3975252162303356
3952 -7.591896218612027 3.2382051088356247 -3.689411616197571
3953 2.0772118394225956 0.9605112797432639 1.11097843488779
3954 0.4329620725547871 0.4068703306925222 2.0116701105707184
3955 4.379121730911042 1.899818801616171 -4.0817445205570255
3956 -2.7897677364064304 0.7059628417425499 -2.5884185957676826
3957 -3.294399861311314 0.9617073456266687 -0.7597219117527493
3958 -1.9245201545088013 -0.8600579168369947 -0.5390026944945148
3959 -1.4285125438903616 1.4386436191356666 -2.9194845337397863
3960 -3.8508689038871586 -0.6288663308933518 2.4528691478238582
3961 0.07339576732434112 -4.077960291412204 -1.2482301742037158
3962 -0.2703964533502305 0.6070344041830249 3.3983938975162853
3963 -1.1112446217494734 -2.2118750270390493 -3.582711290558387
3964 0.5626189084065562 -1.5401159582407737 4.016376404402385
3965 -4.270193455360248 2.865146905762267 1.6670171766378088
3968 1.1117454443301784 2.1124655098892617 -0.25677643606277156
3966 -4.931249457711129 -3.6421672633448994 -4.172934118146839
3967 2.4327468195862942 -2.7568281365190734 -0.09983198579472156
3969 -0.7116721845755991 -2.1538143815036923 0.9890567392402566
3972 2.930671570060191 0.30639492416095127 0.14727654453599495
3970 -0.5585536390573177 -3.37092706480004 -0.3626824118573331
3971 -3.7949594901651493 1.6728869510541542 0.274074471743131
3973 2.5134221515313597 -1.9950425093354756 -2.3623322563073934
3976 3.1147756918893394 -3.181176468053422 -2.08658287169415
3974 -6.638788908342805 3.575728690222107 -3.5648494632659844
3975 -4.033123541105087 -0.4619369310489647 6.681083375683375
3977 1.1514935643499264 -1.882265773615753 2.2763874898886174
3980 -0.7402337065421365 0.17453729132747958 -2.379181997256796
3978 3.493603527368803 -0.07279241024156337 -0.37738745289226655
3979 -1.5071640382351434 -3.008181490655036 3.4586491771170893
3981 0.5389936699362611 -4.657526350428298 -2.520344862199952
3982 1.4996354217261718 1.3608086577719656 5.028497484000696
3983 -3.1196515663530056 1.8605761192341013 -0.13242567967297442
3984 -1.786258039174866 -0.7592692586183426 0.7895903154152163
3985 -0.3458940845984795 -2.7316773631278823 2.3591278552509407
3986 -1.7901754314420715 -1.0029878413457278 2.9255124923070843
3987 4.596875131836218 0.23069845397104152 0.834691331851204
3988 -0.026505975215727947 -2.804012465929359 5.771064131310948
3989 2.2718419110614163 -4.086426262891406 -0.0727410969163879
3990 6.74298938727033 1.9401953151552456 -1.9028804744326708
3991 0.20476278401641507 -3.1054916999820614 -1.519553466831751
3992 -0.7742382432899235 1.4391069336927849 -2.0942748213272955
3993 2.162234073282039 -2.415911357005609 0.9886190942736293
3994 4.256550501293851 -0.4384944749409225 -0.9656993363145737
3995 -2.425520404425944 1.8707790331999514 -2.394737283162088
3996 2.9578154784538717 0.6914326041972244 1.9373964975946725
3997 -7.3048619782479465 1.8269482329867646 0.7870779438674597
3998 0.46308349443941854 0.06859501809231634 2.316455654258603
3999 3.3688754769122546 -4.261001052254436 -1.4581010605933034
4000 1.5163161451704108 -0.3092072853795412 2.4756898804568985
