LAMMPS (29 Aug 2024)
  using 1 OpenMP thread(s) per MPI task
units metal
dimension 3
boundary p p s
atom_style atomic
variable a equal 3.3008
variable gap equal 15.0
variable nx equal 20
variable ny equal 20
variable npz equal 20
variable ntz equal 40
variable dt equal 0.001
variable temperature equal 300.0
variable tdamp equal 0.1
variable equil_steps equal 100000
variable production_steps equal 100000
variable vimpact equal 20.0
variable xhi equal v_nx*v_a
variable yhi equal v_ny*v_a
variable projectile_zhi equal v_npz*v_a
variable target_zlo equal v_npz*v_a
variable target_zhi_initial equal (v_npz+v_ntz)*v_a
variable zhi equal (v_npz+v_ntz)*v_a+v_gap
lattice bcc ${a} orient x 1 0 0 orient y 0 1 0 orient z 0 0 1 origin 0.0 0.0 0.0
lattice bcc 3.3008 orient x 1 0 0 orient y 0 1 0 orient z 0 0 1 origin 0.0 0.0 0.0
Lattice spacing in x,y,z = 3.3008 3.3008 3.3008
region box block 0 ${xhi} 0 ${yhi} 0 ${zhi} units box
region box block 0 66.016 0 ${yhi} 0 ${zhi} units box
region box block 0 66.016 0 66.016 0 ${zhi} units box
region box block 0 66.016 0 66.016 0 213.048 units box
create_box 1 box
Created orthogonal box = (0 0 0) to (66.016 66.016 213.048)
  1 by 1 by 1 MPI processor grid
region target_initial block 0 ${xhi} 0 ${yhi} ${target_zlo} ${target_zhi_initial} units box
region target_initial block 0 66.016 0 ${yhi} ${target_zlo} ${target_zhi_initial} units box
region target_initial block 0 66.016 0 66.016 ${target_zlo} ${target_zhi_initial} units box
region target_initial block 0 66.016 0 66.016 66.016 ${target_zhi_initial} units box
region target_initial block 0 66.016 0 66.016 66.016 198.048 units box
create_atoms 1 region target_initial
Created 32400 atoms
  using lattice units in orthogonal box = (0 0 -0.0213048) to (66.016 66.016 213.0693)
  create_atoms CPU = 0.004 seconds
group target region target_initial
32400 atoms in group target
region projectile_region block 0 ${xhi} 0 ${yhi} 0 ${projectile_zhi} units box
region projectile_region block 0 66.016 0 ${yhi} 0 ${projectile_zhi} units box
region projectile_region block 0 66.016 0 66.016 0 ${projectile_zhi} units box
region projectile_region block 0 66.016 0 66.016 0 66.016 units box
create_atoms 1 region projectile_region
Created 16400 atoms
  using lattice units in orthogonal box = (0 0 -0.0213048) to (66.016 66.016 213.0693)
  create_atoms CPU = 0.002 seconds
group projectile region projectile_region
16800 atoms in group projectile
mass 1 92.90638
pair_style eam/fs
pair_coeff * * /home/holbrooe/LAMMPS-AST/publication/potentials/prompt3.potential Nb
neighbor 2.0 bin
neigh_modify every 1 delay 0 check yes
timestep ${dt}
timestep 0.001
velocity all create ${temperature} 12345 mom yes rot no dist gaussian
velocity all create 300 12345 mom yes rot no dist gaussian
thermo 1000
thermo_style custom step time temp pe ke etotal press pxx pyy pzz lx ly lz atoms
thermo_modify flush yes lost error
fix equilibration all nvt temp ${temperature} ${temperature} ${tdamp}
fix equilibration all nvt temp 300 ${temperature} ${tdamp}
fix equilibration all nvt temp 300 300 ${tdamp}
fix equilibration all nvt temp 300 300 0.1
reset_timestep 0
run 10
Neighbor list info ...
  update: every = 1 steps, delay = 0 steps, check = yes
  max neighbors/atom: 2000, page size: 100000
  master list distance cutoff = 6.75
  ghost atom cutoff = 6.75
  binsize = 3.375, bins = 20 20 64
  1 neighbor lists, perpetual/occasional/extra = 1 0 0
  (1) pair eam/fs, perpetual
      attributes: half, newton on
      pair build: half/bin/atomonly/newton
      stencil: half/bin/3d
      bin: standard
WARNING: A per-atom density exceeded rhomax of EAM potential table - a linear extrapolation to the energy was made (src/src/MANYBODY/pair_eam.cpp:334)
Per MPI rank memory allocation (min/avg/max) = 21.5 | 21.5 | 21.5 Mbytes
   Step          Time           Temp          PotEng         KinEng         TotEng         Press           Pxx            Pyy            Pzz             Lx             Ly             Lz          Atoms   
         0   0              300           -nan            1892.3297     -nan           -nan           -nan           -nan           -nan            66.016         66.016         198.09061          48800 
        10   0.01          -nan            0             -nan           -nan           -nan           -nan           -nan           -nan            66.016         66.016         198.09061          48800 
Loop time of 0.0660803 on 1 procs for 10 steps with 48800 atoms

Performance: 13.075 ns/day, 1.836 hours/ns, 151.331 timesteps/s, 7.385 Matom-step/s
99.3% CPU use with 1 MPI tasks x 1 OpenMP threads

MPI task timing breakdown:
Section |  min time  |  avg time  |  max time  |%varavg| %total
---------------------------------------------------------------
Pair    | 0.05719    | 0.05719    | 0.05719    |   0.0 | 86.55
Neigh   | 0          | 0          | 0          |   0.0 |  0.00
Comm    | 0.0012551  | 0.0012551  | 0.0012551  |   0.0 |  1.90
Output  | 0.00041578 | 0.00041578 | 0.00041578 |   0.0 |  0.63
Modify  | 0.006117   | 0.006117   | 0.006117   |   0.0 |  9.26
Other   |            | 0.001102   |            |       |  1.67

Nlocal:          48800 ave       48800 max       48800 min
Histogram: 1 0 0 0 0 0 0 0 0 0
Nghost:          24510 ave       24510 max       24510 min
Histogram: 1 0 0 0 0 0 0 0 0 0
Neighs:     1.5588e+06 ave  1.5588e+06 max  1.5588e+06 min
Histogram: 1 0 0 0 0 0 0 0 0 0

Total # of neighbors = 1558800
Ave neighs/atom = 31.942623
Neighbor list builds = 0
Dangerous builds = 0
