LAMMPS (29 Aug 2024)
  using 1 OpenMP thread(s) per MPI task
units metal
dimension 3
boundary p p s
atom_style atomic
variable a equal 3.3008
variable nx equal 20
variable ny equal 20
variable nz_target equal 40
variable nz_projectile equal 20
variable gap equal 15.0
variable xhi equal ${nx}*${a}
variable xhi equal 20*${a}
variable xhi equal 20*3.3008
variable yhi equal ${ny}*${a}
variable yhi equal 20*${a}
variable yhi equal 20*3.3008
variable z_target_hi equal ${nz_target}*${a}
variable z_target_hi equal 40*${a}
variable z_target_hi equal 40*3.3008
variable z_combined_hi equal (${nz_target}+${nz_projectile})*${a}
variable z_combined_hi equal (40+${nz_projectile})*${a}
variable z_combined_hi equal (40+20)*${a}
variable z_combined_hi equal (40+20)*3.3008
variable z_box_hi equal (${nz_target}+${nz_projectile})*${a}+${gap}
variable z_box_hi equal (40+${nz_projectile})*${a}+${gap}
variable z_box_hi equal (40+20)*${a}+${gap}
variable z_box_hi equal (40+20)*3.3008+${gap}
variable z_box_hi equal (40+20)*3.3008+15
lattice bcc ${a} orient x 1 0 0 orient y 0 1 0 orient z 0 0 1 origin 0.0 0.0 0.0 spacing ${a} ${a} ${a}
lattice bcc 3.3008 orient x 1 0 0 orient y 0 1 0 orient z 0 0 1 origin 0.0 0.0 0.0 spacing ${a} ${a} ${a}
lattice bcc 3.3008 orient x 1 0 0 orient y 0 1 0 orient z 0 0 1 origin 0.0 0.0 0.0 spacing 3.3008 ${a} ${a}
lattice bcc 3.3008 orient x 1 0 0 orient y 0 1 0 orient z 0 0 1 origin 0.0 0.0 0.0 spacing 3.3008 3.3008 ${a}
lattice bcc 3.3008 orient x 1 0 0 orient y 0 1 0 orient z 0 0 1 origin 0.0 0.0 0.0 spacing 3.3008 3.3008 3.3008
Lattice spacing in x,y,z = 10.895281 10.895281 10.895281
region simulation_box block 0.0 ${xhi} 0.0 ${yhi} 0.0 ${z_box_hi} units box
region simulation_box block 0.0 66.016 0.0 ${yhi} 0.0 ${z_box_hi} units box
region simulation_box block 0.0 66.016 0.0 66.016 0.0 ${z_box_hi} units box
region simulation_box block 0.0 66.016 0.0 66.016 0.0 213.048 units box
create_box 1 simulation_box
Created orthogonal box = (0 0 0) to (66.016 66.016 213.048)
  1 by 1 by 1 MPI processor grid
region initial_solid block 0.0 ${xhi} 0.0 ${yhi} 0.0 ${z_combined_hi} units box
region initial_solid block 0.0 66.016 0.0 ${yhi} 0.0 ${z_combined_hi} units box
region initial_solid block 0.0 66.016 0.0 66.016 0.0 ${z_combined_hi} units box
region initial_solid block 0.0 66.016 0.0 66.016 0.0 198.048 units box
create_atoms 1 region initial_solid
Created 48400 atoms
  using lattice units in orthogonal box = (0 0 -0.0213048) to (66.016 66.016 213.0693)
  create_atoms CPU = 0.005 seconds
mass 1 92.90638
pair_style eam/fs
pair_coeff * * /home/holbrooe/LAMMPS-AST/publication/potentials/prompt3.potential Nb
neighbor 2.0 bin
neigh_modify every 1 delay 0 check yes
region projectile_initial block 0.0 ${xhi} 0.0 ${yhi} ${z_target_hi} ${z_combined_hi} units box
region projectile_initial block 0.0 66.016 0.0 ${yhi} ${z_target_hi} ${z_combined_hi} units box
region projectile_initial block 0.0 66.016 0.0 66.016 ${z_target_hi} ${z_combined_hi} units box
region projectile_initial block 0.0 66.016 0.0 66.016 132.032 ${z_combined_hi} units box
region projectile_initial block 0.0 66.016 0.0 66.016 132.032 198.048 units box
group projectile region projectile_initial
16400 atoms in group projectile
group target subtract all projectile
32000 atoms in group target
timestep 0.001
thermo 1000
thermo_style custom step time temp pe ke etotal press vol
thermo_modify flush yes lost error
velocity all create 300.0 12345 mom yes rot no dist gaussian units box
fix equilibration all nvt temp 300.0 300.0 0.1
run 10
Neighbor list info ...
  update: every = 1 steps, delay = 0 steps, check = yes
  max neighbors/atom: 2000, page size: 100000
  master list distance cutoff = 6.75
  ghost atom cutoff = 6.75
  binsize = 3.375, bins = 20 20 64
  1 neighbor lists, perpetual/occasional/extra = 1 0 0
  (1) pair eam/fs, perpetual
      attributes: half, newton on
      pair build: half/bin/atomonly/newton
      stencil: half/bin/3d
      bin: standard
Per MPI rank memory allocation (min/avg/max) = 21.48 | 21.48 | 21.48 Mbytes
   Step          Time           Temp          PotEng         KinEng         TotEng         Press          Volume    
         0   0              300           -341851.79      1876.8185     -339974.97      10038.357      863301.11    
        10   0.01           280.46626     -341729.36      1754.6142     -339974.74      10926.24       863301.11    
Loop time of 0.212153 on 1 procs for 10 steps with 48400 atoms

Performance: 4.073 ns/day, 5.893 hours/ns, 47.136 timesteps/s, 2.281 Matom-step/s
99.4% CPU use with 1 MPI tasks x 1 OpenMP threads

MPI task timing breakdown:
Section |  min time  |  avg time  |  max time  |%varavg| %total
---------------------------------------------------------------
Pair    | 0.20359    | 0.20359    | 0.20359    |   0.0 | 95.97
Neigh   | 0          | 0          | 0          |   0.0 |  0.00
Comm    | 0.0012485  | 0.0012485  | 0.0012485  |   0.0 |  0.59
Output  | 0.00023189 | 0.00023189 | 0.00023189 |   0.0 |  0.11
Modify  | 0.0060236  | 0.0060236  | 0.0060236  |   0.0 |  2.84
Other   |            | 0.001056   |            |       |  0.50

Nlocal:          48400 ave       48400 max       48400 min
Histogram: 1 0 0 0 0 0 0 0 0 0
Nghost:          24285 ave       24285 max       24285 min
Histogram: 1 0 0 0 0 0 0 0 0 0
Neighs:     1.5304e+06 ave  1.5304e+06 max  1.5304e+06 min
Histogram: 1 0 0 0 0 0 0 0 0 0

Total # of neighbors = 1530400
Ave neighs/atom = 31.619835
Neighbor list builds = 0
Dangerous builds = 0
velocity projectile set NULL NULL -20.0 sum yes units box
fix production all nve
run 10
WARNING: One or more atoms are time integrated more than once (src/src/modify.cpp:296)
Per MPI rank memory allocation (min/avg/max) = 21.49 | 21.49 | 21.49 Mbytes
   Step          Time           Temp          PotEng         KinEng         TotEng         Press          Volume    
        10   0.01           5324.1057     -341729.36      33307.934     -308421.42      49945.309      863650.54    
        20   0.02           4920.6558     -340765.12      30783.927     -309981.2       56822.12       863650.54    
Loop time of 0.261518 on 1 procs for 10 steps with 48400 atoms

Performance: 3.304 ns/day, 7.264 hours/ns, 38.238 timesteps/s, 1.851 Matom-step/s
98.3% CPU use with 1 MPI tasks x 1 OpenMP threads

MPI task timing breakdown:
Section |  min time  |  avg time  |  max time  |%varavg| %total
---------------------------------------------------------------
Pair    | 0.2497     | 0.2497     | 0.2497     |   0.0 | 95.48
Neigh   | 0          | 0          | 0          |   0.0 |  0.00
Comm    | 0.0012621  | 0.0012621  | 0.0012621  |   0.0 |  0.48
Output  | 0.0002865  | 0.0002865  | 0.0002865  |   0.0 |  0.11
Modify  | 0.0092616  | 0.0092616  | 0.0092616  |   0.0 |  3.54
Other   |            | 0.00101    |            |       |  0.39

Nlocal:          48400 ave       48400 max       48400 min
Histogram: 1 0 0 0 0 0 0 0 0 0
Nghost:          24285 ave       24285 max       24285 min
Histogram: 1 0 0 0 0 0 0 0 0 0
Neighs:     1.5304e+06 ave  1.5304e+06 max  1.5304e+06 min
Histogram: 1 0 0 0 0 0 0 0 0 0

Total # of neighbors = 1530400
Ave neighs/atom = 31.619835
Neighbor list builds = 0
Dangerous builds = 0
Total wall time: 0:00:00
