# LAMMPS script for NVE simulation with 16 tungsten atoms in a BCC lattice

# Initialize LAMMPS
units           metal
dimension       3
boundary        p p p
atom_style      atomic

# Create BCC lattice and simulation box
lattice         bcc 3.165  # Lattice parameter for tungsten, adjust if needed
region          box block 0 2 0 2 0 2
create_box      1 box
create_atoms    1 box

# Define tungsten mass and potential
mass            1 183.84  # Tungsten atomic mass in amu

# Set interatomic potential (example: EAM potential for tungsten)
pair_style      eam/alloy
pair_coeff      * * <path/to/potential_file> W

# Define settings for simulation
timestep        0.001      # Timestep in picoseconds
neighbor        2.0 bin
neigh_modify    every 1 delay 0 check yes

# Velocity initialization and equilibration
velocity        all create 3000.0 12345 mom yes rot yes dist gaussian
fix             1 all nve
thermo_style    custom step temp pe ke etotal
thermo          10

# Run the simulation
run             7500  # Total time of 7.5 ps with 0.001 ps timestep

# Output settings
dump            1 all custom 10 dump.lammpstrj id type x y z
dump_modify     1 every 10

# End of script