# LAMMPS script to simulate tungsten at 3000 K using NVE ensemble

# Initialize simulation
units           metal
dimension       3
boundary        p p p
atom_style      atomic

# Create a BCC lattice and define the simulation box
lattice         bcc 3.165 # Approximate lattice parameter for tungsten
region          box block 0 2 0 2 0 2
create_box      1 box
create_atoms    1 box

mass            1 183.84 # Atomic mass of tungsten

# Define interatomic potential (using generic pair style as placeholder)
# Important: This needs to be replaced with the actual potential and settings used in ML-IAP
# pair_style    ml-snap
# pair_coeff    * * your_mliap_potential_file.element W

# Set up the velocity distribution at 3000 K
velocity        all create 3000.0 12345 mom yes dist gaussian

# Specify the NVE ensemble
fix             1 all nve

# Run parameters
timestep        0.001 # In metal units, 1 fs timestep
run             7500  # Total simulation time 7.5 ps / 0.001 ps timestep

# Output settings
thermo          7.5  # Set the thermo output interval to match 7500 steps / 1000 samples
thermo_style    custom step temp pe ke etotal

# Write initial configuration to a file
write_data      tungsten_initial.data

# Note: A Python script or library might be needed for custom outputs or to further interact with the ML-IAP through python, if necessary.