# LAMMPS script for NVE simulation of tungsten using specified method

# Initialize the simulation
units metal
dimension 3
boundary p p p
atom_style atomic

# Create a BCC lattice of tungsten
lattice bcc 3.165 # Lattice constant for tungsten in Angstroms
region box block 0 2 0 2 0 2
create_box 1 box
create_atoms 1 box

# Define interatomic potential
# Replace 'PATH_TO_YOUR_POTENTIAL' with the appropriate potential file for tungsten
pair_style eam/alloy
pair_coeff * * PATH_TO_YOUR_POTENTIAL W

# Define simulation settings
mass 1 183.84 # Atomic mass of tungsten in amu
neighbor 2.0 bin
neigh_modify delay 0 every 1 check yes

# Set temperature and equilibration
velocity all create 3000.0 482748 # Initialize velocities to 3000 K (use a random seed)
fix 1 all nve
thermo 10
thermo_style custom step time temp pe ke etotal

# Equilibrate the system
run 5000 # Adjust as needed to reach equilibrium at 3000 K

# Begin main simulation
reset_timestep 0
dump myDump all custom 7.5 myDump.dump id type x y z
dump_modify myDump every 7.5 

# Run the simulation for 7.5 ps with 1000 time samples
# Convert 7.5 ps into timesteps: 7.5 ps / (1 fs per timestep) = 7500 timesteps
timestep 0.001 # Timestep in picoseconds (1 fs)
run 7500

# End of script