# LAMMPS input script for NVE simulation of tungsten

units           metal
atom_style      atomic
boundary        p p p

# Initialize simulation box
lattice         bcc 3.165 # tungsten BCC lattice parameter at high temperature
region          box block 0 2 0 2 0 2
create_box      1 box
create_atoms    1 box

# Define interatomic potential
pair_style      eam
pair_coeff      * * W.eam # Assuming EAM potential file for tungsten named W.eam

# Set simulation settings
ensemble units metal temperature 3000.0
timestep        0.001 # 1 fs timestep
thermo_style    custom step temp etotal # Thermodynamic output
thermo          7   # Output thermo every step/sample as 7 steps * 1000 samples = 7000 steps
run_style       respa 1 10 20

# Equilibration
velocity        all create 3000.0 12345 mom yes rot yes dist gaussian
fix             1 all nve
run             5000 # Equilibrate for 5000 steps (5 ps at 1 fs timestep)

# Output settings
dump            myDump all custom 7 dump.lammpstrj id type x y z vx vy vz
dump_modify     myDump sort id scale no

# Main simulation
fix_modify fixID temp ensemble

run             2500 # Simulate for remaining 2.5 ps at 1 fs timestep (1500 steps * 7 is 10,500)