# LAMMPS input script for NVE simulation of Tungsten at 3000 K

# Initialize simulation
units metal
dimension 3
boundary p p p
atom_style atomic

# Create BCC lattice and 16 atoms
lattice bcc 3.1652   # Approximate lattice constant for tungsten
region box block 0 2 0 2 0 2
create_box 1 box
create_atoms 1 box

# Set interatomic potential
pair_style eam/alloy
pair_coeff * * tungsten_eam.alloy W

# Define settings for temperature control
velocity all create 3000 12345 mom yes rot no  # Initialize the velocity for target temperature

# Run NVE simulation
timestep 0.001  # 1 fs timestep
thermo 100      # Output every 100 timesteps
thermo_style custom step temp pe ke etotal

fix 1 all nve

# Equilibrate at 3000 K
run 7500

# Clean up
unfix 1