# LAMMPS script for melting analysis of bulk Ni

units metal
dimension 3
boundary p p p
atom_style atomic

# Create FCC Ni lattice and replicate
lattice fcc 3.52
region box block 0 10 0 10 0 10
create_box 1 box
create_atoms 1 box

# Define EAM potential from Mishin et al. (1999) via OpenKIM
kim init NIST-MI-1199-DFT-1
kim interactions NIST-MI-1199-DFT-1 Ni

# Set initial velocities from Maxwell-Boltzmann distribution at 600 K
velocity all create 600.0 12345 mom yes rot yes dist gaussian

# Define simulation settings
neighbor 2.0 bin
neigh_modify delay 5 every 1 check yes

# Define NPT ensemble for heating process
fix 1 all npt temp 300.0 2500.0 10.0 iso 1.0 1.0 1.0

# Thermodynamic output
thermo 100
thermo_style custom step temp press etotal pe ke

# Run simulation for heating
timestep 0.001  # 1 fs timestep
run 220000       # Heating from 300K to 2500K at 10K/ps -> 220 ps -> 220000 steps

# Unfix NPT to finalize simulation
unfix 1

# Write final configuration
write_data final_configuration.data
