# LAMMPS script for melting simulation of bulk Ni

units metal
atom_style atomic
boundary p p p

# Create a 10x10x10 FCC lattice of Ni
lattice fcc 3.52
region box block 0 10 0 10 0 10
create_box 1 box
create_atoms 1 box

# Set the interatomic potential (EAM potential from Mishin et al., 1999)
pair_style eam
pair_coeff * * Ni99.eam.alloy Ni

# Define MD settings
mass 1 58.6934  # Atomic mass of Ni
velocity all create 600.0 4928459 mom yes rot yes dist gaussian

# Set up NPT integration
fix 1 all npt temp 300.0 2500.0 100.0 iso 1.0 1.0 1000.0

# Run settings
thermo 100
thermo_style custom step temp press etotal pe ke
dump 1 all custom 100 dump.melting id type x y z vx vy vz
timestep 0.001  # 1 fs time step

run 220000  # 220 ps (to reach 2500 K at 10 K/ps)

unfix 1
write_data final_structure.data
